********************************************************************************
Field Output Report, written Mon Jan 14 22:11:13 2019

Source 1
---------

   ODB: C:/AbaqusTemp/SolidSphereSmall_Z.odb
   Step: Step-1
   Frame: Increment      1: Step Time =    1.000

Loc 1 : Centroidal values from source 1

Output sorted by column "Element Label".

Field Output reported at element centroid for part: PART-1-1

          Element            S.S11            S.S22            S.S33            S.S12            S.S13            S.S23
            Label           @Loc 1           @Loc 1           @Loc 1           @Loc 1           @Loc 1           @Loc 1
------------------------------------------------------------------------------------------------------------------------
                1   114.943504E+06   -57.469796E+06    -57.46974E+06      -109.266495   344.827584E+06      -28.5126724
                2   114.942024E+06   -57.471432E+06   -57.471192E+06       46.0374031   344.827904E+06      -104.190506
                3   114.942424E+06   -57.470932E+06   -57.470732E+06      -53.3500671   344.827712E+06      -29.1061420
                4   114.943328E+06    -57.47066E+06   -57.470556E+06       131.158905   344.827808E+06       64.7496414
                5   114.942768E+06   -57.471328E+06   -57.471036E+06       28.1541119   344.827904E+06       9.23493958
                6    114.94312E+06    -57.47088E+06    -57.47064E+06       22.0723915    344.82784E+06       57.5407181
                7   114.943088E+06   -57.470936E+06   -57.470712E+06      -10.7456474   344.827872E+06       57.7120132
                8   114.943176E+06    -57.47062E+06     -57.4704E+06       30.2896385   344.827648E+06       27.0622978
                9   114.942872E+06   -57.470628E+06   -57.470188E+06       19.9363651   344.827712E+06      -38.7628250
               10   114.942752E+06   -57.470756E+06   -57.470616E+06      -20.3784409   344.827648E+06      -44.0586433
               11   114.943536E+06   -57.470096E+06   -57.469756E+06       1.73641849   344.827712E+06      -78.2430496
               12   114.943008E+06    -57.47048E+06   -57.470148E+06      -38.0410156   344.827648E+06      -116.764366
               13   114.941024E+06    -57.47276E+06   -57.472172E+06       133.172607   344.827808E+06       5.57302475
               14   114.941592E+06   -57.471788E+06   -57.471628E+06       180.259460    344.82736E+06       286.350220
               15   114.942216E+06   -57.471272E+06   -57.470444E+06       298.397858   344.827424E+06       86.6789856
               16   114.943224E+06   -57.470548E+06   -57.470124E+06      -2.64045477   344.827744E+06      -109.866753
               17   114.942832E+06   -57.470912E+06    -57.47054E+06      -117.740173   344.827648E+06      -131.865234
               18   114.944312E+06   -57.469568E+06   -57.469476E+06      -137.145599    344.82768E+06       187.831390
               19   114.940072E+06   -57.473976E+06    -57.47466E+06      -736.781738    344.82864E+06       443.111816
               20   114.940064E+06   -57.474068E+06   -57.475464E+06      -122.107109   344.828256E+06      -493.930603
               21   114.942048E+06   -57.471796E+06   -57.471688E+06      -26.4043159   344.827968E+06       74.6177063
               22   114.943808E+06   -57.470436E+06   -57.470608E+06      -329.645721    344.82816E+06      -23.8988094
               23   114.943344E+06   -57.470064E+06     -57.4716E+06      -399.387085   344.828224E+06       156.145889
               24   114.944656E+06   -57.469096E+06   -57.468912E+06       66.6892853   344.827552E+06       211.743256
               25   114.943472E+06   -57.470508E+06   -57.470236E+06      -55.7378578    344.82784E+06      -104.991982
               26   114.941824E+06   -57.471816E+06   -57.471604E+06      -5.60589743   344.827776E+06      -80.0248489
               27   114.942216E+06   -57.471544E+06   -57.471156E+06      -32.2390671   344.827936E+06      -39.9305458
               28   114.944056E+06    -57.47068E+06   -57.470964E+06  -1.45822827E+03   344.829152E+06  -1.81522046E+03
               29   114.944088E+06   -57.469528E+06   -57.469284E+06       122.106613   344.827712E+06       226.068832
               30   114.942384E+06   -57.471184E+06   -57.470936E+06       3.08114982   344.827744E+06       118.814751
               31    114.94376E+06   -57.469688E+06   -57.469512E+06       96.7116013   344.827968E+06       4.19527531
               32   114.942976E+06   -57.470676E+06   -57.470256E+06       2.79575801   344.827712E+06       8.64699745
               33   114.942536E+06   -57.471052E+06   -57.470632E+06      -30.8496513   344.827712E+06      -6.00934219
               34     114.9428E+06   -57.470976E+06    -57.47074E+06      -54.4083023   344.827712E+06       38.5900421
               35   114.942192E+06   -57.471356E+06   -57.471456E+06      -13.7346983   344.828032E+06       184.002365
               36    114.94292E+06   -57.470436E+06    -57.47046E+06       69.9907379   344.827968E+06      -12.4170465
               37   115.037776E+06    -57.38852E+06    -57.38636E+06  -5.02323193E+03   344.812992E+06   1.22596509E+03
               38   114.942368E+06   -57.471104E+06   -57.471004E+06      -142.308807   344.827648E+06       64.3676682
               39    114.94268E+06      -57.471E+06    -57.47078E+06       57.9302788   344.827904E+06      -49.9041443
               40    114.94292E+06   -57.470028E+06    -57.47002E+06      -121.860626   344.827968E+06       186.110062
               41   114.943488E+06    -57.46956E+06   -57.469692E+06      -192.678925   344.827552E+06      -24.7780838
               42   114.944576E+06   -57.468848E+06   -57.468176E+06       93.8979568   344.827648E+06       857.768066
               43    114.91988E+06   -57.486124E+06   -57.487068E+06   4.33820117E+03   344.826944E+06       387.588409
               44   114.939744E+06   -57.472288E+06   -57.473124E+06      -9.95792484   344.827008E+06       141.621338
               45    114.93964E+06   -57.472396E+06   -57.473584E+06       4.00272369   344.826656E+06  -675.413907E-03
               46   114.939008E+06    -57.47412E+06   -57.475292E+06      -275.352478   344.827584E+06       214.995209
               47   114.947304E+06   -57.464016E+06    -57.46446E+06       561.260315    344.82672E+06       699.271729
               48   114.939088E+06    -57.47346E+06   -57.473752E+06      -4.03901434   344.826944E+06      -295.504120
               49   114.944656E+06   -57.468228E+06   -57.468672E+06       788.634460   344.827776E+06       350.480194
               50   114.977208E+06    -57.44172E+06   -57.441804E+06  -4.78476953E+03    344.82112E+06      -427.496613
               51   114.950264E+06   -57.465988E+06    -57.46538E+06      -988.383301   344.828672E+06      -245.470413
               52   114.936144E+06   -57.479352E+06   -57.477928E+06   3.27887354E+03    344.83008E+06      -150.146378
               53     114.9384E+06    -57.47436E+06     -57.4743E+06      -588.824463   344.827168E+06  -1.02708960E+03
               54   114.943008E+06   -57.470712E+06    -57.47048E+06      -136.567322   344.827904E+06       119.088181
               55   114.944048E+06   -57.469656E+06   -57.469728E+06      -579.092102   344.827584E+06      -113.625496
               56   114.943232E+06   -57.470748E+06   -57.470632E+06      -285.794403   344.827552E+06      -1.20010221
               57   114.941464E+06   -57.472788E+06   -57.472388E+06       20.5791302   344.827712E+06      -85.1835785
               58   114.945392E+06   -57.469256E+06   -57.469144E+06      -103.434387   344.827328E+06       89.1175079
               59   114.941768E+06    -57.47224E+06    -57.47198E+06       62.8297653   344.827712E+06      -35.2221451
               60   114.944128E+06   -57.470496E+06    -57.47084E+06      -147.275070   344.827232E+06       120.246437
               61   114.942656E+06   -57.471492E+06   -57.471204E+06      -52.7273979   344.827936E+06      -54.2524338
               62      114.942E+06   -57.472528E+06   -57.472008E+06       123.810684   344.827872E+06       76.6061401
               63   114.943072E+06   -57.470968E+06   -57.470608E+06       146.124344    344.82784E+06       67.1501694
               64   114.942336E+06   -57.471476E+06   -57.471192E+06       102.185532   344.827776E+06       66.9766006
               65   114.939288E+06   -57.473848E+06    -57.47342E+06      -57.1009369    344.82848E+06       181.082779
               66    114.94116E+06   -57.472672E+06   -57.472276E+06      -168.935944    344.82848E+06       296.577698
               67   114.939224E+06   -57.474216E+06   -57.473684E+06   2.15166357E+03    344.82944E+06      -315.258209
               68    114.94376E+06   -57.470224E+06   -57.470008E+06      -149.101471   344.828192E+06      -184.498047
               69   114.937024E+06    -57.47508E+06   -57.474252E+06       244.178055   344.828128E+06      -197.309052
               70   114.941872E+06   -57.471784E+06   -57.471796E+06       177.073349   344.827776E+06      -213.252975
               71    114.94536E+06   -57.468696E+06   -57.468452E+06       7.98120117    344.82768E+06      -74.8559647
               72   114.937536E+06   -57.475496E+06   -57.475724E+06      -15.1827154   344.826592E+06      -562.184387
               73   114.941616E+06    -57.47262E+06   -57.472816E+06      -295.830322   344.828096E+06       190.990723
               74   114.947224E+06   -57.467396E+06   -57.467804E+06      -256.445129   344.827424E+06      -39.4614716
               75   114.940024E+06   -57.473944E+06   -57.474352E+06      -395.217590   344.828384E+06       202.695297
               76   114.944056E+06   -57.470164E+06   -57.470112E+06       53.1160431      344.828E+06      -53.5169411
               77   114.942296E+06   -57.471696E+06   -57.471436E+06      -64.0611725   344.828224E+06      -3.15352893
               78   114.942656E+06    -57.47134E+06   -57.471108E+06       73.6451035   344.828032E+06       78.9806137
               79   114.943336E+06    -57.47112E+06   -57.471172E+06       37.7942886   344.828096E+06       91.8821564
               80    114.93748E+06    -57.47316E+06   -57.473392E+06      -152.976852   344.827328E+06       682.424683
               81   114.941792E+06   -57.471396E+06   -57.471228E+06      -11.8963575   344.827648E+06      -347.039368
               82     114.9668E+06   -57.445096E+06   -57.449732E+06  -4.61161523E+03   344.820608E+06       57.7671356
               83   114.947088E+06   -57.466856E+06   -57.466172E+06       158.291916   344.827072E+06       708.475220
               84   114.946392E+06   -57.466772E+06    -57.46546E+06      -116.977425   344.827392E+06       408.655731
               85   114.943304E+06    -57.47058E+06   -57.469732E+06       206.891937   344.827552E+06      -186.680725
               86   114.941912E+06   -57.471672E+06    -57.47158E+06       67.8744125   344.827776E+06      -24.0198326
               87   114.940024E+06   -57.473496E+06   -57.473812E+06       17.7345734   344.827904E+06      -380.582367
               88   114.942728E+06     -57.4714E+06   -57.470984E+06      -283.407410   344.827904E+06      -209.854950
               89    114.94284E+06   -57.471524E+06     -57.4714E+06       329.289673   344.827872E+06       208.353943
               90    114.94384E+06   -57.468812E+06   -57.469392E+06       115.228348    344.82752E+06       96.9095383
               91   114.942768E+06   -57.471824E+06   -57.472392E+06       316.871460   344.827328E+06       288.345886
               92   114.942536E+06   -57.471372E+06   -57.471208E+06       29.0032063   344.827776E+06       18.5373154
               93    114.94348E+06   -57.470788E+06   -57.470484E+06      -52.7326736    344.82784E+06      -59.4629593
               94   114.943752E+06   -57.471452E+06   -57.470568E+06       179.415558   344.828256E+06       15.2674398
               95   114.944608E+06   -57.469436E+06   -57.469236E+06      -164.444366    344.82736E+06       71.4638290
               96   114.937864E+06   -57.478044E+06   -57.478376E+06       572.330017   344.828608E+06       754.922119
               97     114.9426E+06   -57.472124E+06    -57.47166E+06       136.836823   344.827744E+06       149.970886
               98   114.943304E+06    -57.47106E+06   -57.471624E+06      -86.2953491   344.827744E+06      -43.7808228
               99   114.943416E+06     -57.4705E+06   -57.470444E+06      -225.667358   344.827072E+06       52.3814163
              100   114.943008E+06   -57.470676E+06   -57.470168E+06       59.5027046   344.827648E+06       11.8580675
              101   114.943336E+06   -57.470932E+06   -57.470804E+06      -269.566925   344.827712E+06      -167.028122
              102   114.943192E+06   -57.470284E+06    -57.47024E+06       203.982117   344.827584E+06       59.4973869
              103   114.942872E+06   -57.470504E+06   -57.470844E+06       105.370789    344.82768E+06      -80.3510513
              104   114.942928E+06   -57.470884E+06   -57.470736E+06      -25.9154377   344.827744E+06      -34.7614899
              105   114.942408E+06   -57.471452E+06   -57.471228E+06      -56.1835098    344.82768E+06       27.6421986
              106   114.966736E+06    -57.45232E+06   -57.452196E+06       473.568665   344.826592E+06       377.110443
              107   114.942704E+06   -57.471188E+06   -57.470916E+06      -32.0461769    344.82784E+06       53.2991371
              108   114.942376E+06   -57.471508E+06   -57.471304E+06      -74.9164810   344.827744E+06      -3.73578167
              109    114.94264E+06     -57.4712E+06   -57.471024E+06      -26.2676544   344.827744E+06      -24.0677624
              110   114.939544E+06     -57.4743E+06   -57.473992E+06       167.650101   344.828192E+06      -124.991043
              111    114.94248E+06   -57.471424E+06   -57.471168E+06      -17.4006844   344.827872E+06       54.2771797
              112   114.943232E+06    -57.47086E+06    -57.47048E+06       63.3048897   344.827936E+06      -83.7901840
              113   114.941672E+06   -57.472244E+06   -57.472236E+06       32.7434540   344.828096E+06       405.109314
              114   114.935424E+06   -57.478176E+06    -57.47844E+06   3.07962695E+03   344.827328E+06       428.594025
              115   114.943168E+06   -57.470772E+06    -57.47054E+06      -13.2925644   344.827712E+06       47.9467583
              116    114.94264E+06   -57.471096E+06   -57.470928E+06      -21.1407719   344.827712E+06       36.7242126
              117   114.941752E+06   -57.472528E+06   -57.472888E+06      -175.435867    344.82784E+06      -275.471191
              118   114.943736E+06   -57.470628E+06   -57.470332E+06      -89.3242798   344.827904E+06      -48.3955574
              119   114.944088E+06   -57.469956E+06   -57.470532E+06      -420.650085   344.827552E+06      -182.548706
              120   114.942408E+06   -57.471436E+06   -57.471468E+06      -128.801315   344.827392E+06      -80.3315201
              121   114.942328E+06   -57.471312E+06   -57.470944E+06      -6.12275600   344.827744E+06       42.7170639
              122   114.942504E+06   -57.470988E+06   -57.470856E+06      -91.2521744   344.827616E+06      -97.4866486
              123   114.942968E+06   -57.470436E+06    -57.47042E+06       97.4336929   344.827936E+06       5.22357702
              124   114.942264E+06   -57.471324E+06   -57.470732E+06      -1.34059799   344.827616E+06       10.3378353
              125   114.942936E+06     -57.4709E+06   -57.470492E+06      -10.8777380   344.827648E+06      -100.226036
              126   114.942672E+06   -57.471188E+06    -57.47106E+06       132.580658   344.828096E+06      -23.8281231
              127   114.942216E+06   -57.471408E+06   -57.471204E+06       80.7173004      344.828E+06      -32.1509171
              128   114.943048E+06   -57.470696E+06   -57.470324E+06      -5.73066854   344.827968E+06      -181.893219
              129   114.941928E+06   -57.471912E+06   -57.471676E+06      -26.8862095   344.827904E+06      -133.143127
              130     114.9428E+06   -57.470924E+06   -57.470676E+06      -74.9360886   344.827648E+06      -107.393684
              131   114.943088E+06   -57.470856E+06   -57.470652E+06      -12.7390776   344.827904E+06      -26.3875408
              132   114.942632E+06   -57.471324E+06   -57.471148E+06      -33.2752113   344.827968E+06      -1.00782943
              133   114.941912E+06    -57.47196E+06   -57.471716E+06      -43.1566849   344.827776E+06      -4.79003477
              134      114.943E+06   -57.470728E+06   -57.470136E+06       111.647591   344.827584E+06       51.6920776
              135   114.942528E+06   -57.471432E+06    -57.47104E+06      -20.6523495   344.827904E+06      -43.6623764
              136   114.943472E+06   -57.470636E+06   -57.469968E+06       5.29883432      344.828E+06      -21.1593285
              137   114.925832E+06    -57.48322E+06   -57.483024E+06   1.61306116E+03   344.826752E+06      -173.113464
              138   114.942296E+06   -57.471616E+06   -57.471164E+06       8.15826511   344.828032E+06      -258.764526
              139   114.942944E+06   -57.470676E+06   -57.470464E+06       8.68005180   344.827776E+06       30.5283566
              140   114.943368E+06   -57.471464E+06   -57.471908E+06   2.47742969E+03   344.831392E+06  -1.14771606E+03
              141    114.94256E+06   -57.471292E+06    -57.47134E+06       128.399002   344.828128E+06       22.3310795
              142   114.942984E+06   -57.470988E+06   -57.470828E+06      -23.4380760   344.827904E+06       96.4169998
              143    114.94272E+06   -57.471036E+06   -57.470708E+06      -24.5416660   344.827936E+06       103.482887
              144     114.9428E+06   -57.470824E+06   -57.470564E+06      -1.74489987    344.82784E+06       59.2685051
              145   114.943208E+06    -57.47062E+06   -57.470104E+06      -25.6177082   344.827776E+06      -160.794067
              146   114.942336E+06    -57.47136E+06    -57.47106E+06       21.3630161   344.828064E+06      -190.945847
              147   114.943456E+06   -57.470532E+06    -57.47094E+06      -612.591858    344.82752E+06       60.4528160
              148    114.94264E+06   -57.470728E+06    -57.47052E+06       55.9691124    344.82784E+06      -227.150421
              149    114.94164E+06   -57.472396E+06   -57.472564E+06      -179.026077   344.827424E+06       170.328583
              150   114.942328E+06   -57.471384E+06   -57.471288E+06       17.4231567   344.827872E+06       166.688110
              151   114.942064E+06   -57.471648E+06   -57.471288E+06      -103.461746   344.827776E+06       163.109192
              152   114.942072E+06   -57.471396E+06   -57.470976E+06      -3.73544741   344.827776E+06       44.3576393
              153   114.941296E+06   -57.472636E+06   -57.472284E+06       47.9861641   344.827872E+06       133.736069
              154   114.942872E+06   -57.470804E+06   -57.470488E+06       45.1978111   344.827744E+06       70.3355179
              155   114.941992E+06    -57.47136E+06   -57.471116E+06      -120.689835    344.82768E+06       145.895157
              156   114.942328E+06   -57.471416E+06    -57.47102E+06      -13.5143681   344.827936E+06       114.695938
              157   114.944904E+06   -57.468232E+06   -57.468868E+06      -112.482285   344.827904E+06      -24.3132896
              158   114.942952E+06   -57.470624E+06   -57.470176E+06       54.8362541   344.827936E+06       291.198395
              159   114.942352E+06    -57.47188E+06   -57.471728E+06      -40.5357666   344.827744E+06      -143.421783
              160   114.942152E+06   -57.471408E+06   -57.471436E+06      -74.0203705   344.827584E+06      -280.287109
              161   114.943216E+06    -57.47058E+06   -57.470328E+06       2.54414916   344.827648E+06      -39.7131729
              162    114.94272E+06    -57.47134E+06   -57.471116E+06       28.0234451   344.827872E+06      -92.1224823
              163   114.943344E+06   -57.470416E+06   -57.470416E+06      -14.2535734   344.827808E+06      -66.1279068
              164   114.942232E+06   -57.471648E+06     -57.4715E+06       47.6735039   344.827776E+06      -41.2835960
              165   114.942584E+06   -57.470956E+06   -57.470816E+06      -10.4400949    344.82768E+06       15.7157698
              166   114.942688E+06   -57.471208E+06   -57.471252E+06       22.6596012   344.827904E+06      -133.814117
              167    114.94224E+06    -57.47158E+06   -57.471244E+06      -136.858505   344.827616E+06      -139.861603
              168   114.942504E+06   -57.471184E+06   -57.470824E+06       7.90559053   344.827744E+06       50.5400238
              169   114.942752E+06   -57.471196E+06   -57.471128E+06      -51.2702713   344.827904E+06      -180.348145
              170    114.94324E+06   -57.470664E+06   -57.470372E+06       27.1419373   344.827872E+06       10.0383205
              171   114.943064E+06   -57.471012E+06   -57.470944E+06  -8.61424021E-03   344.827712E+06      -71.4743500
              172   114.942664E+06   -57.471168E+06   -57.470964E+06      -27.6217861    344.82784E+06       61.6054459
              173   114.942664E+06   -57.471568E+06   -57.471152E+06      -29.5041218   344.827968E+06       88.0315628
              174   114.942168E+06    -57.47158E+06   -57.471256E+06      -39.4548264   344.827904E+06       34.8606262
              175   114.942648E+06   -57.470916E+06   -57.470696E+06      -41.3928070   344.827648E+06      -54.8851891
              176   114.942312E+06    -57.47116E+06   -57.470684E+06      -125.288071   344.827744E+06      -69.8004150
              177   114.941648E+06   -57.471752E+06   -57.471676E+06      -103.466003   344.827776E+06      -18.0118103
              178   114.943248E+06   -57.470352E+06   -57.469824E+06       89.7625122   344.827936E+06       252.206802
              179   114.942696E+06   -57.471072E+06   -57.470728E+06      -3.38531780    344.82784E+06       7.55927420
              180   114.942576E+06   -57.471172E+06   -57.470836E+06      -58.5182648   344.827936E+06       97.1296005
              181   114.942848E+06   -57.470712E+06   -57.470508E+06      -78.1388550   344.827584E+06      -135.158249
              182   114.943944E+06   -57.469684E+06   -57.469204E+06      -10.2219563   344.827872E+06       235.739044
              183    114.94164E+06   -57.472416E+06   -57.472332E+06      -86.1784821   344.827872E+06      -71.3269730
              184   114.942608E+06    -57.47076E+06   -57.470784E+06      -107.312317   344.828128E+06       339.005005
              185   114.941608E+06   -57.471836E+06    -57.47168E+06      -112.620216   344.827776E+06      -8.80893421
              186   114.942768E+06   -57.470988E+06   -57.470868E+06      -42.8504524    344.82768E+06      -10.4877529
              187   114.943424E+06   -57.470276E+06   -57.470128E+06      -140.872803   344.827552E+06       56.4103813
              188   114.942584E+06   -57.471144E+06   -57.470912E+06      -15.7274704   344.827808E+06       90.7838440
              189   114.942544E+06    -57.47116E+06   -57.470824E+06      -13.1656675   344.827904E+06       111.145508
              190   114.944944E+06   -57.469356E+06   -57.469348E+06      -98.4978333   344.827616E+06      -130.233444
              191   114.941696E+06   -57.471568E+06   -57.471636E+06       156.162598   344.828224E+06       10.5188284
              192   114.942048E+06    -57.47148E+06    -57.47172E+06      -40.1410713   344.827392E+06      -37.2997665
              193   114.943416E+06    -57.47004E+06   -57.469804E+06       17.8131371    344.82784E+06       4.10720539
              194     114.9428E+06   -57.471128E+06   -57.470872E+06       35.5872650   344.827904E+06       66.2789764
              195   114.942152E+06   -57.471384E+06    -57.47094E+06      -7.07857847    344.82784E+06      -180.312775
              196   114.941736E+06     -57.4721E+06   -57.472276E+06       91.5920105    344.82768E+06       107.561485
              197   114.942296E+06    -57.47142E+06   -57.470916E+06      -87.2468262   344.827904E+06      -168.709930
              198   114.942648E+06   -57.471268E+06   -57.471376E+06      -43.7892036   344.827808E+06       17.6171589
              199   114.937088E+06   -57.472836E+06   -57.472372E+06  -1.24087598E+03   344.829728E+06       927.469910
              200   114.949032E+06   -57.466148E+06   -57.466272E+06  -1.20723804E+03   344.827776E+06      -318.742859
              201   114.943608E+06    -57.47364E+06   -57.472892E+06      -65.1825867   344.827488E+06      -900.719604
              202   114.940024E+06   -57.473732E+06   -57.473524E+06       306.096436   344.828448E+06       135.753006
              203   114.943568E+06   -57.470244E+06   -57.469992E+06      -43.3193855   344.827872E+06      -110.670052
              204     114.9426E+06   -57.471268E+06   -57.471368E+06      -5.92943907   344.827808E+06      -99.2765274
              205     114.9422E+06   -57.471516E+06   -57.472236E+06      -31.9006596   344.827584E+06       77.5663452
              206   114.942496E+06   -57.471372E+06   -57.471448E+06       197.828293   344.827648E+06       74.0844498
              207   114.941024E+06    -57.47284E+06   -57.472424E+06      -195.386292   344.828256E+06      -18.3060436
              208    114.94284E+06   -57.471112E+06   -57.470672E+06       34.9180183   344.827872E+06       63.8269272
              209   114.943328E+06   -57.470664E+06   -57.470276E+06      -70.3559418   344.827968E+06      -64.2094498
              210   114.940568E+06   -57.471632E+06    -57.47194E+06      -114.313362   344.827616E+06      -191.354553
              211   114.943536E+06    -57.47014E+06   -57.470676E+06       87.7761154   344.827584E+06       72.4340134
              212   114.942896E+06   -57.470976E+06   -57.471464E+06       49.1076508   344.827776E+06      -119.607498
              213   114.940968E+06   -57.472708E+06   -57.472344E+06       565.453186    344.82784E+06      -224.388016
              214   114.941344E+06   -57.472452E+06    -57.47242E+06       221.390045   344.828096E+06      -16.5565357
              215      114.943E+06   -57.470912E+06   -57.470808E+06       38.0337868    344.82784E+06      -1.35248065
              216   114.939944E+06    -57.47426E+06   -57.474788E+06       70.2325668   344.828416E+06      -207.219131
              217   114.944048E+06    -57.46986E+06   -57.469852E+06       12.3635521   344.827552E+06      -75.4426651
              218   114.945608E+06   -57.467968E+06   -57.468456E+06      -297.818848   344.827872E+06       138.749405
              219   114.943336E+06   -57.470184E+06   -57.470704E+06      -45.3177681   344.827264E+06       293.559174
              220   114.944976E+06    -57.46926E+06   -57.469356E+06      -199.428192   344.828192E+06       4.70974827
              221    114.94348E+06    -57.47018E+06   -57.470108E+06      -125.873505   344.827648E+06       166.714767
              222   114.944856E+06   -57.468988E+06   -57.469176E+06      -384.704712   344.827744E+06      -1.91893041
              223   114.942536E+06   -57.471364E+06   -57.471124E+06       68.1663818   344.827936E+06      -72.6696472
              224   114.942744E+06   -57.471032E+06     -57.4708E+06      -14.2919760   344.827712E+06       61.4209900
              225   114.943736E+06   -57.470264E+06   -57.469996E+06      -222.968811   344.827776E+06       66.3474960
              226   114.943272E+06   -57.470288E+06    -57.47062E+06       235.267761   344.827808E+06      -166.511017
              227   114.943456E+06    -57.47018E+06   -57.470004E+06      -180.435440   344.827616E+06      -174.019928
              228   114.943744E+06   -57.469976E+06   -57.469908E+06       138.690323   344.827872E+06      -131.012115
              229   114.944464E+06   -57.469652E+06   -57.469844E+06      -68.1170044   344.827744E+06       118.206230
              230   114.943456E+06   -57.470536E+06   -57.470352E+06       77.2911224   344.827872E+06       161.395187
              231    114.94268E+06    -57.47122E+06   -57.471004E+06       30.5296745      344.828E+06       197.013046
              232   114.942328E+06   -57.471572E+06   -57.472156E+06       8.44228554    344.82784E+06       271.501312
              233   114.942232E+06    -57.47194E+06   -57.471828E+06       126.492195   344.827936E+06       354.962524
              234   114.943992E+06   -57.469368E+06    -57.46996E+06       445.261963   344.826912E+06      -29.5451736
              235   114.942224E+06   -57.469484E+06   -57.470528E+06      -406.524841   344.827552E+06      -550.739136
              236   114.943576E+06   -57.471764E+06   -57.471084E+06  -1.38385645E+03   344.828768E+06  -1.06627576E+03
              237   114.945112E+06   -57.468988E+06    -57.46748E+06  -1.11952917E+03   344.828064E+06  -1.31015515E+03
              238   114.943248E+06   -57.471572E+06   -57.471432E+06      -38.6643181    344.82848E+06       8.09883785
              239   114.949472E+06   -57.464728E+06    -57.46416E+06  -2.09443848E+03    344.82784E+06      -435.757324
              240   114.938176E+06    -57.47526E+06   -57.477956E+06  -1.38441260E+03   344.827264E+06   1.05963013E+03
              241   114.944904E+06   -57.467708E+06   -57.468496E+06      -16.1497555   344.828128E+06       20.5928020
              242   114.943944E+06   -57.469728E+06   -57.468528E+06      -166.858093   344.827776E+06      -14.9309912
              243   114.942168E+06   -57.470984E+06    -57.47016E+06      -411.132935   344.827744E+06      -391.933929
              244   114.942552E+06   -57.471544E+06   -57.471448E+06       119.118538   344.828128E+06      -191.692963
              245    114.94356E+06   -57.470456E+06   -57.470084E+06       89.2192688   344.827712E+06      -11.3709555
              246   114.940928E+06   -57.472608E+06   -57.472364E+06       170.290619   344.827424E+06       219.778091
              247   114.944832E+06   -57.468764E+06   -57.468124E+06      -51.7421112    344.82752E+06      -247.170334
              248     114.9422E+06   -57.471092E+06   -57.470296E+06       308.242432   344.827456E+06       6.05458975
              249   114.942168E+06   -57.471484E+06   -57.471204E+06      -15.3721704   344.827936E+06      -160.716293
              250   114.946024E+06    -57.46736E+06   -57.466164E+06      -388.462067   344.827392E+06       113.822388
              251   114.941032E+06   -57.468024E+06    -57.46874E+06   1.30788110E+03   344.827104E+06       106.990356
              252   114.939584E+06   -57.472828E+06   -57.473904E+06      -59.3803940     344.8272E+06       395.001221
              253   114.930048E+06   -57.482256E+06   -57.481792E+06      -53.2647400    344.82832E+06       680.227783
              254   114.925352E+06   -57.482104E+06   -57.482544E+06       479.395081   344.828704E+06       167.272827
              255    114.93456E+06   -57.474664E+06   -57.475312E+06   1.04274194E+03    344.82576E+06      -55.6292725
              256   114.942216E+06    -57.47144E+06   -57.471544E+06       207.529510   344.828192E+06      -303.737640
              257   114.945488E+06   -57.466172E+06   -57.467768E+06       323.960175   344.826464E+06       54.4900932
              258   114.941088E+06   -57.471448E+06     -57.4716E+06      -691.677795      344.828E+06       376.930664
              259    114.94316E+06   -57.470588E+06   -57.470644E+06       60.9713860   344.828192E+06      -51.7980042
              260   114.940592E+06   -57.473276E+06    -57.47312E+06       246.768158   344.828416E+06      -148.333511
              261   114.943776E+06   -57.470212E+06   -57.470244E+06      -85.5959396    344.82752E+06       118.523926
              262   114.942272E+06    -57.47138E+06   -57.471108E+06      -470.049744   344.827904E+06      -25.6010361
              263   114.943984E+06   -57.471948E+06   -57.471244E+06   1.26384924E+03   344.826944E+06       19.2900887
              264     114.9436E+06   -57.470944E+06   -57.470512E+06       30.0579834   344.827872E+06      -113.587799
              265     114.9428E+06    -57.47092E+06    -57.47078E+06      -38.5298615    344.82768E+06      -12.1600161
              266   114.946256E+06   -57.467912E+06    -57.46842E+06      -52.6698532   344.826592E+06       110.656067
              267   114.947456E+06   -57.465444E+06   -57.464864E+06   1.11497900E+03   344.827424E+06      -424.688538
              268   114.945064E+06   -57.468376E+06   -57.469104E+06   1.16870178E+03   344.827072E+06      -215.569412
              269   114.944208E+06   -57.468744E+06   -57.469436E+06      -144.529526   344.827552E+06       219.545181
              270   114.946744E+06   -57.466872E+06   -57.467264E+06       491.980804   344.827104E+06       264.195313
              271   114.940712E+06   -57.473112E+06   -57.473064E+06       40.4222069    344.82816E+06       31.9980259
              272    114.94188E+06     -57.4718E+06   -57.472164E+06      -96.5475159   344.827808E+06       235.888702
              273   114.941936E+06   -57.471908E+06     -57.4718E+06       88.2799225   344.827904E+06       54.1195679
              274    114.94376E+06   -57.470532E+06   -57.470912E+06       103.008408   344.827776E+06       87.5539398
              275   114.946088E+06   -57.470128E+06   -57.468972E+06      -386.563477   344.828416E+06       376.583984
              276   114.940088E+06     -57.4743E+06   -57.475256E+06   2.41803906E+03    344.82976E+06       372.372498
              277      114.931E+06   -57.482056E+06   -57.482244E+06   1.69260840E+03   344.830496E+06      -224.756989
              278   114.937248E+06   -57.477452E+06   -57.477344E+06   2.57640869E+03   344.830368E+06       89.1974792
              279    114.94312E+06   -57.466116E+06    -57.46604E+06      -77.9918365   344.826656E+06       730.042786
              280    114.93164E+06   -57.478544E+06   -57.478356E+06       965.122192   344.828416E+06       30.4804897
              281   114.942992E+06    -57.47282E+06   -57.472712E+06   3.18526685E+03    344.83024E+06      -420.988281
              282    114.96048E+06   -57.456936E+06   -57.456996E+06   2.15971899E+03   344.825952E+06       959.648010
              283   114.938424E+06   -57.478988E+06   -57.478568E+06   3.06251025E+03   344.831008E+06       341.006134
              284   114.924768E+06    -57.48416E+06   -57.483884E+06  -3.86608911E+03   344.828864E+06       434.444672
              285   114.932616E+06   -57.475192E+06   -57.475908E+06      -621.161194   344.825824E+06       682.980225
              286    114.93172E+06   -57.480312E+06   -57.480608E+06      -601.617188   344.829664E+06       90.7000504
              287    114.92264E+06    -57.49064E+06    -57.48952E+06   3.45695996E+03   344.831008E+06       611.563660
              288   114.946608E+06    -57.46708E+06    -57.46692E+06      -71.8798065   344.825408E+06       764.695435
              289   114.943672E+06   -57.470488E+06   -57.471624E+06      -717.722534   344.827392E+06      -266.729431
              290   114.894008E+06    -57.50408E+06   -57.506688E+06      -571.279785   344.824384E+06       674.718567
              291   114.950504E+06    -57.46294E+06   -57.462308E+06       106.477371   344.825568E+06       282.142639
              292   114.943528E+06    -57.47008E+06   -57.470336E+06       36.4294319   344.828064E+06      -233.508194
              293     114.9156E+06   -57.490568E+06   -57.490556E+06       885.636597   344.826048E+06      -526.754517
              294   114.941992E+06   -57.472328E+06   -57.472428E+06       23.0586300   344.828032E+06       3.97672701
              295    114.94232E+06    -57.47156E+06    -57.47132E+06      -70.7890472    344.82816E+06      -116.794594
              296   114.942448E+06   -57.471236E+06   -57.470788E+06      -10.5789614   344.828096E+06      -146.769302
              297   114.938136E+06   -57.474796E+06   -57.474676E+06       79.3581924   344.828128E+06      -188.690643
              298    114.94364E+06   -57.470332E+06   -57.470504E+06       23.8112183   344.827904E+06      -185.543396
              299   114.950656E+06    -57.46286E+06   -57.463704E+06  -1.17020959E+03   344.825792E+06      -438.391937
              300   114.946176E+06    -57.46894E+06   -57.468424E+06       147.382233   344.827584E+06      -128.500214
              301   114.943688E+06   -57.470236E+06   -57.470316E+06      -232.723145   344.828032E+06      -88.6472092
              302   114.942352E+06    -57.47202E+06   -57.471592E+06      -98.0947342    344.82832E+06      -240.675156
              303   114.942784E+06    -57.47188E+06   -57.471696E+06      -455.998444   344.828224E+06       112.518219
              304    114.94488E+06    -57.46972E+06   -57.469908E+06      -70.7694016    344.82816E+06       407.511200
              305   114.941696E+06   -57.472324E+06   -57.472124E+06      -153.571228   344.827776E+06      -86.8078766
              306   114.944384E+06   -57.467804E+06   -57.467716E+06       283.697998   344.826272E+06       149.731369
              307   114.953904E+06   -57.464864E+06   -57.463504E+06      -9.75307560   344.829088E+06       84.8315353
              308   114.953208E+06   -57.459908E+06    -57.45988E+06      -706.751526   344.822112E+06      -183.079407
              309   114.953608E+06   -57.460412E+06   -57.457404E+06  -1.30784204E+03    344.82784E+06  -1.39744678E+03
              310   114.903856E+06   -57.502448E+06   -57.503212E+06   7.70288135E+03   344.828512E+06       144.563095
              311   114.946872E+06   -57.468808E+06   -57.466624E+06   1.92183215E+03   344.825824E+06      -263.719727
              312      114.941E+06   -57.473588E+06     -57.4743E+06      -906.697266    344.82848E+06       208.171127
              313    114.95516E+06   -57.465996E+06     -57.4646E+06      -670.693359   344.828928E+06       590.221558
              314   114.941752E+06   -57.472948E+06   -57.474036E+06      -38.4202766   344.827808E+06      -368.829834
              315   114.943272E+06     -57.4711E+06   -57.471288E+06       263.906128   344.828256E+06       354.257538
              316   114.944656E+06   -57.469944E+06    -57.47048E+06       183.296890   344.827904E+06      -81.4032974
              317   114.941912E+06   -57.472468E+06   -57.472816E+06       174.117752   344.828224E+06       230.539902
              318   114.945328E+06   -57.469188E+06    -57.46962E+06       251.856888    344.82784E+06       83.7480469
              319   114.943128E+06   -57.470944E+06   -57.470696E+06       29.7778988   344.827904E+06       94.8091125
              320   114.943544E+06   -57.470708E+06   -57.470556E+06       52.2937469   344.827968E+06       103.986900
              321    114.94256E+06    -57.47144E+06    -57.47116E+06      -5.14370441   344.827808E+06       38.8335457
              322   114.943056E+06   -57.471308E+06   -57.470832E+06      -114.702362   344.828064E+06      -74.5273361
              323    114.96068E+06    -57.45992E+06   -57.459828E+06  -2.47613306E+03   344.828224E+06  -1.19770081E+03
              324   114.957608E+06   -57.454656E+06   -57.454328E+06   4.20335840E+03   344.825152E+06       38.0942459
              325   114.921752E+06   -57.486124E+06   -57.485364E+06   3.66730933E+03    344.82944E+06       346.094482
              326    114.94876E+06   -57.469512E+06   -57.468876E+06       93.1752014   344.827232E+06      -952.371521
              327     114.9672E+06   -57.454852E+06   -57.453232E+06      -588.790771   344.828544E+06       191.435028
              328   114.943024E+06   -57.470824E+06   -57.470604E+06      -146.360107   344.827744E+06      -211.750259
              329   114.943088E+06   -57.470976E+06   -57.470808E+06      -34.0983582   344.827872E+06      -106.023163
              330   114.943536E+06   -57.470372E+06   -57.470352E+06       40.6445160   344.827776E+06      -101.255623
              331    114.94288E+06   -57.471136E+06   -57.471272E+06       83.6356049   344.827936E+06      -26.4984932
              332    114.94252E+06    -57.47146E+06    -57.47126E+06       26.7380810   344.827872E+06      -96.0695038
              333    114.94312E+06    -57.47068E+06   -57.470664E+06       28.7996235   344.827744E+06       3.63505340
              334   114.942792E+06   -57.470964E+06   -57.470904E+06       40.0485382   344.827872E+06      -79.4916458
              335   114.944912E+06   -57.467592E+06     -57.4682E+06      -122.865784   344.828352E+06      -651.382202
              336   114.944536E+06   -57.469376E+06   -57.468448E+06      -59.0111504    344.82768E+06       33.5254402
              337   114.942288E+06   -57.471196E+06   -57.471164E+06       205.965118   344.827904E+06      -226.443878
              338   114.942536E+06   -57.470224E+06   -57.469716E+06       414.785706   344.827488E+06      -568.450195
              339   114.944968E+06    -57.46778E+06   -57.468496E+06      -2.31170511   344.827616E+06      -41.6656494
              340   114.945576E+06   -57.467612E+06   -57.467844E+06      -407.277405   344.827296E+06      -87.7327805
              341   114.950568E+06   -57.461484E+06   -57.461684E+06  -2.83618091E+03    344.82736E+06      -360.890289
              342    114.94344E+06   -57.470456E+06   -57.469428E+06       62.4384308   344.828064E+06       68.9545593
              343   114.939448E+06   -57.475188E+06   -57.474648E+06       59.3452797   344.828224E+06      -63.3522568
              344   114.943824E+06   -57.470088E+06   -57.470256E+06   1.09143787E+03   344.827616E+06       184.699738
              345   114.946272E+06   -57.468076E+06   -57.467912E+06       411.946930   344.826688E+06       40.0332794
              346   114.940032E+06   -57.473016E+06   -57.471832E+06       129.180450    344.82832E+06       203.604279
              347   114.941048E+06   -57.471712E+06    -57.47112E+06      -55.5273438   344.828128E+06       472.946747
              348   114.940456E+06   -57.473104E+06   -57.472496E+06       15.3800135   344.827744E+06      -287.447784
              349   114.942808E+06    -57.47076E+06   -57.470712E+06      -90.8662643   344.828096E+06       284.301788
              350   114.955224E+06   -57.460548E+06   -57.461584E+06  -1.75430591E+03   344.828192E+06      -982.974854
              351   114.944184E+06   -57.469268E+06   -57.469992E+06      -670.572632   344.826944E+06      -222.850815
              352   114.943064E+06   -57.470424E+06   -57.470132E+06      -53.7671280   344.828064E+06      -66.3711243
              353   114.943912E+06   -57.469476E+06   -57.469036E+06      -233.994308   344.827936E+06      -473.593567
              354   114.942064E+06    -57.47124E+06   -57.471124E+06      -86.8987656   344.827744E+06      -73.8940735
              355   114.943304E+06   -57.470744E+06   -57.470468E+06       71.0584717   344.827936E+06      -71.3990402
              356   114.948976E+06   -57.463756E+06   -57.464316E+06      -283.211639   344.826432E+06      -318.387604
              357   114.942656E+06   -57.471196E+06   -57.470764E+06      -136.693359      344.828E+06      -227.960571
              358    114.94372E+06   -57.468296E+06   -57.467676E+06   6.78883252E+03   344.825664E+06       561.661255
              359   114.942584E+06    -57.47082E+06    -57.47054E+06      -77.1895370   344.827584E+06      -45.0775528
              360   114.985976E+06   -57.439776E+06   -57.443792E+06   6.65283252E+03   344.826272E+06       130.996933
              361   114.940168E+06   -57.474804E+06   -57.476476E+06  -1.05407678E+03   344.829152E+06       1.50371993
              362   114.929592E+06   -57.479984E+06   -57.480472E+06  -1.47639795E+03   344.825376E+06  -1.96530359E+03
              363   114.941576E+06   -57.472364E+06    -57.47222E+06      -622.334290   344.828032E+06       114.886017
              364   114.949832E+06   -57.466328E+06   -57.465476E+06      -917.266541   344.827072E+06       83.8187103
              365    114.94512E+06   -57.469408E+06   -57.470084E+06      -440.114075   344.827744E+06       40.0874748
              366   114.943848E+06     -57.4708E+06   -57.470544E+06      -157.314407    344.82752E+06      -497.127686
              367    114.94272E+06   -57.471204E+06    -57.47096E+06      -424.811340   344.827904E+06      -372.306946
              368   114.961112E+06   -57.456928E+06   -57.453164E+06   2.79485742E+03   344.829376E+06      -883.272949
              369     114.9438E+06   -57.470208E+06   -57.470156E+06      -348.302673   344.827104E+06      -247.433945
              370    114.94084E+06   -57.473944E+06   -57.474556E+06      -387.235870   344.828032E+06      -381.883148
              371   114.933192E+06   -57.477676E+06   -57.476524E+06  -1.23436548E+03   344.828192E+06      -228.449692
              372   114.937816E+06   -57.468996E+06   -57.470292E+06       825.707458   344.827232E+06      -217.969177
              373   114.910016E+06   -57.498064E+06     -57.4984E+06   4.30783936E+03   344.833184E+06      -316.729492
              374    114.94136E+06    -57.46862E+06   -57.468824E+06      -173.914932   344.826304E+06      -720.486511
              375   114.940072E+06   -57.475268E+06   -57.475192E+06       617.514038   344.829888E+06   1.39111011E+03
              376     114.9426E+06   -57.471248E+06   -57.471288E+06       56.1142960   344.827968E+06       98.5103989
              377   114.941552E+06   -57.472304E+06   -57.472376E+06      -12.3994732   344.828128E+06      -25.0679760
              378   114.943176E+06    -57.47096E+06   -57.470928E+06       33.1341934   344.827872E+06       70.7801208
              379   114.942976E+06   -57.470716E+06    -57.47086E+06      -11.1269398   344.827936E+06       64.6352997
              380   114.942264E+06    -57.47188E+06   -57.471804E+06       92.1255035   344.828032E+06      -11.0294867
              381    114.94328E+06   -57.470788E+06   -57.470512E+06       28.2736988   344.827904E+06       86.9978180
              382   114.943144E+06   -57.470944E+06   -57.470688E+06       24.2179947   344.827936E+06       78.1272507
              383    114.94804E+06   -57.466472E+06   -57.467696E+06      -641.865295   344.827136E+06      -980.999695
              384   114.932568E+06    -57.47836E+06    -57.48048E+06      -526.046997   344.826432E+06  -1.00468353E+03
              385   114.948048E+06    -57.46682E+06   -57.468104E+06       226.308304   344.827552E+06  -1.01331323E+03
              386   114.942616E+06   -57.473492E+06   -57.473696E+06   1.39434668E+03   344.828448E+06       58.0175476
              387   114.928544E+06   -57.481372E+06   -57.483388E+06      -413.703156   344.827296E+06      -608.602539
              388    114.94216E+06     -57.4718E+06   -57.471508E+06      -360.904785   344.827904E+06       270.680115
              389   114.940496E+06   -57.474948E+06   -57.473656E+06       124.559349   344.827808E+06       715.312439
              390   114.944728E+06   -57.469348E+06   -57.469172E+06      -286.447479    344.82784E+06      -123.817276
              391   114.940632E+06   -57.473524E+06   -57.472612E+06       590.802490   344.827488E+06       398.355469
              392   114.946496E+06     -57.4658E+06   -57.466016E+06      -692.495789   344.827488E+06   1.45199658E+03
              393    114.94356E+06   -57.470668E+06   -57.470512E+06       187.269485    344.82768E+06       97.6006317
              394   114.942568E+06   -57.471292E+06   -57.471108E+06      -270.019104   344.827744E+06      -139.308624
              395   114.941968E+06    -57.47182E+06   -57.471868E+06      -36.7271042   344.828192E+06      -135.475449
              396   114.944032E+06    -57.46984E+06   -57.470256E+06       87.0458069   344.827808E+06       92.7423401
              397   114.941824E+06   -57.472772E+06   -57.472688E+06      -167.598877      344.828E+06       462.181000
              398   114.943168E+06   -57.470992E+06   -57.471176E+06      -39.8981857   344.827904E+06       49.9933319
              399    114.87788E+06   -57.526692E+06   -57.527204E+06  -1.21213000E+03    344.83616E+06      -828.053101
              400   114.941576E+06    -57.47026E+06   -57.471264E+06       259.604401   344.825824E+06   1.12349316E+03
              401    114.94396E+06    -57.47036E+06   -57.470208E+06      -226.845596   344.828384E+06       12.0336027
              402   114.943672E+06   -57.470208E+06   -57.469464E+06      -102.895699   344.827872E+06      -201.657318
              403    114.94228E+06   -57.471496E+06   -57.471128E+06   620.648205E-03   344.828032E+06      -242.423615
              404   114.943248E+06   -57.470664E+06   -57.470004E+06      -51.0839081   344.827808E+06      -98.2015915
              405   114.943624E+06    -57.47068E+06   -57.470772E+06       137.602707   344.827904E+06       140.060577
              406   114.942672E+06   -57.470708E+06   -57.471536E+06       295.050201   344.827104E+06       236.424820
              407    114.94404E+06   -57.470952E+06    -57.47054E+06       3.30908465    344.82784E+06       67.4869232
              408   114.943448E+06   -57.471144E+06   -57.470552E+06      -96.4291534      344.828E+06      -70.1491241
              409   114.943472E+06   -57.470196E+06   -57.470276E+06       319.803955    344.82784E+06       14.0341749
              410   114.943768E+06   -57.469892E+06   -57.469924E+06       219.027252   344.827744E+06       36.1059456
              411   114.943144E+06   -57.470764E+06   -57.470812E+06       89.9219742    344.82784E+06       116.621712
              412       114.94E+06   -57.473736E+06   -57.473992E+06       502.841644    344.82768E+06       335.371948
              413   114.941816E+06   -57.471784E+06   -57.471592E+06      -50.3166924   344.828192E+06       229.659653
              414   114.942216E+06   -57.471456E+06   -57.471116E+06      -21.6074905   344.828256E+06       236.578842
              415    114.94296E+06   -57.470764E+06     -57.4704E+06      -19.5383472   344.827808E+06       101.638062
              416   114.941672E+06   -57.472392E+06   -57.472256E+06      -63.7743034    344.82784E+06      -90.7130508
              417   114.941296E+06   -57.472848E+06   -57.472588E+06       367.550690   344.828064E+06      -79.2999039
              418   114.943032E+06   -57.470728E+06   -57.470292E+06       58.6410599   344.827648E+06       41.6207314
              419    114.94204E+06   -57.471688E+06    -57.47138E+06       26.7864933   344.827936E+06       166.342560
              420   114.942872E+06   -57.471052E+06   -57.471152E+06       60.9366188   344.827872E+06       136.155258
              421   114.943064E+06   -57.471056E+06   -57.471048E+06       179.778244   344.827936E+06      -28.5196190
              422   114.943224E+06    -57.47086E+06   -57.470592E+06       23.1251621   344.827936E+06       71.3385391
              423   114.942584E+06   -57.471276E+06   -57.471076E+06       50.7303696      344.828E+06       120.449829
              424     114.9424E+06   -57.471768E+06   -57.472092E+06       55.6414108   344.828096E+06       80.8744965
              425   114.943072E+06   -57.470936E+06   -57.471072E+06       56.4368362      344.828E+06       128.185440
              426    114.94388E+06   -57.470636E+06   -57.470024E+06   2.98049561E+03    344.82864E+06  -1.04579321E+03
              427   114.942632E+06   -57.471416E+06   -57.471316E+06      -146.569595      344.828E+06       81.2546768
              428    114.94148E+06   -57.472536E+06   -57.473032E+06       4.86636066   344.828288E+06       155.094223
              429   114.943456E+06   -57.470372E+06   -57.470212E+06       115.006012   344.828032E+06      -31.6210594
              430    114.94228E+06   -57.471664E+06   -57.471516E+06       160.374924   344.828352E+06      -101.962982
              431   114.935352E+06    -57.48004E+06    -57.47902E+06       113.777237   344.828672E+06       36.8091698
              432     114.9426E+06   -57.471392E+06   -57.470976E+06       40.2393684   344.828032E+06      -239.576355
              433   114.941552E+06   -57.472676E+06      -57.472E+06      -101.569618   344.828224E+06       60.1526489
              434   114.943072E+06   -57.470632E+06   -57.470508E+06      -26.8252125   344.828096E+06      -50.0405579
              435   114.942664E+06   -57.471192E+06   -57.471264E+06       74.3908615   344.827648E+06      -29.8434448
              436   114.940008E+06   -57.473416E+06   -57.473616E+06       911.355469   344.828032E+06       3.55897713
              437   114.949584E+06   -57.462648E+06    -57.46398E+06      -651.335449   344.826208E+06       875.327209
              438   114.948408E+06   -57.466228E+06   -57.467288E+06      -406.441101   344.827264E+06      -60.0138626
              439   114.944008E+06   -57.470004E+06   -57.470296E+06      -254.938873    344.82784E+06      -125.016037
              440   114.941032E+06   -57.473364E+06   -57.473572E+06      -599.393738   344.828128E+06      -353.315460
              441   114.942504E+06    -57.47172E+06   -57.471876E+06      -95.9410019   344.828032E+06       77.4623489
              442   114.942296E+06   -57.471176E+06   -57.470988E+06       46.9390030    344.82768E+06      -52.5298996
              443   114.942536E+06   -57.471004E+06   -57.470924E+06       39.4527512   344.827744E+06       11.2246065
              444   114.942728E+06   -57.470676E+06    -57.47036E+06      -316.934143    344.82704E+06      -71.3846054
              445   114.943128E+06    -57.46996E+06   -57.470204E+06      -525.189819      344.828E+06       96.1075058
              446    114.94044E+06   -57.474496E+06    -57.47486E+06      -192.194778   344.828224E+06       776.568970
              447   114.941816E+06   -57.472868E+06   -57.472956E+06      -82.9424667   344.828224E+06       974.376770
              448   114.942936E+06   -57.470848E+06   -57.470564E+06       2.65934896   344.827776E+06       184.460571
              449    114.94352E+06   -57.471152E+06   -57.470264E+06       42.5308266   344.828352E+06       503.373810
              450   114.940384E+06   -57.474532E+06   -57.473584E+06      -167.986420   344.827232E+06       326.524506
              451   114.950632E+06    -57.46356E+06   -57.463984E+06      -207.926392   344.825888E+06       338.153931
              452   114.939352E+06    -57.47498E+06   -57.473992E+06      -40.9241142   344.827328E+06       126.525223
              453   114.944752E+06   -57.470388E+06   -57.472224E+06      -31.7844257   344.827744E+06      -236.414307
              454   114.939528E+06   -57.474268E+06    -57.47576E+06      -997.754578    344.82832E+06       593.720764
              455   114.995224E+06   -57.430712E+06   -57.432164E+06   6.90938477E+03   344.826912E+06       272.297974
              456   114.940392E+06   -57.473876E+06   -57.475984E+06       532.733215   344.828576E+06      -62.3851509
              457    114.94544E+06   -57.468852E+06   -57.468032E+06       257.782043   344.827104E+06       964.752869
              458     114.9418E+06    -57.47228E+06   -57.472292E+06      -136.950485   344.828256E+06       164.456635
              459   114.942784E+06   -57.471088E+06   -57.471016E+06      -114.141365    344.82784E+06      -56.7580681
              460   114.936048E+06   -57.475932E+06   -57.478252E+06      -893.443481   344.829088E+06       183.543854
              461    114.94244E+06   -57.471384E+06   -57.471568E+06      -96.5254822   344.827936E+06      -103.533333
              462   114.941664E+06   -57.471548E+06   -57.471876E+06      -341.173737   344.827456E+06      -177.072220
              463   114.943392E+06    -57.47052E+06     -57.4706E+06      -113.407707   344.828128E+06      -42.1919365
              464   114.942824E+06   -57.471124E+06   -57.470916E+06      -148.431061   344.827872E+06      -108.358284
              465      114.943E+06   -57.470936E+06   -57.470764E+06      -86.2827301   344.827872E+06      -117.542740
              466   114.940024E+06   -57.473336E+06   -57.473136E+06      -652.403503   344.828128E+06      -67.6149979
              467   114.943152E+06   -57.470576E+06    -57.47044E+06       28.7706623   344.828032E+06      -64.8364639
              468   114.941376E+06   -57.472072E+06    -57.47202E+06       316.674194   344.828608E+06      -261.692139
              469   114.942912E+06    -57.47096E+06   -57.470988E+06       473.038208   344.828672E+06      -141.859879
              470   114.942456E+06   -57.470764E+06    -57.47118E+06       172.046921   344.827904E+06      -186.666824
              471     114.9438E+06   -57.469756E+06   -57.469752E+06       202.722382   344.828224E+06      -184.688431
              472   114.928944E+06   -57.478924E+06   -57.479024E+06   4.79055127E+03     344.8256E+06       509.580444
              473     114.9446E+06   -57.467064E+06   -57.468196E+06       752.590881   344.828032E+06       525.991943
              474    114.94212E+06   -57.471648E+06   -57.471548E+06      -48.2670631   344.827776E+06       16.2699928
              475   114.942776E+06   -57.470936E+06   -57.470912E+06      -183.601868    344.82752E+06      -322.870850
              476   114.927624E+06   -57.486112E+06     -57.4843E+06   2.21090942E+03   344.831936E+06      -39.9190140
              477   114.941904E+06   -57.471868E+06    -57.47174E+06      -250.487564   344.827968E+06      -280.215759
              478   114.942984E+06    -57.47114E+06   -57.470992E+06      -57.7819862   344.827904E+06      -171.946320
              479   114.943984E+06   -57.471032E+06   -57.470276E+06      -195.812286   344.827744E+06      -149.969742
              480   114.947288E+06   -57.467904E+06   -57.467308E+06       159.571167   344.827648E+06      -21.7824039
              481   114.942624E+06   -57.471136E+06   -57.470692E+06       2.56116724   344.827808E+06      -300.964142
              482   114.941624E+06   -57.471536E+06   -57.471868E+06       187.434280   344.828192E+06      -89.8641434
              483   114.944248E+06   -57.469632E+06   -57.469548E+06      -20.6827831   344.828064E+06       285.873779
              484   114.942408E+06   -57.471232E+06   -57.470968E+06      -54.4291573   344.827936E+06      -220.654922
              485    114.94252E+06   -57.471052E+06    -57.47086E+06      -6.90406752   344.827904E+06      -146.449356
              486   114.943352E+06    -57.47042E+06   -57.469768E+06       27.2399559      344.828E+06      -180.483612
              487   114.942128E+06   -57.471756E+06   -57.471272E+06      -16.5151024   344.828032E+06      -255.955994
              488    114.94384E+06    -57.46948E+06   -57.468928E+06       185.789001   344.827488E+06      -178.666397
              489   114.949648E+06   -57.463152E+06   -57.463356E+06  -1.09193762E+03    344.82768E+06       150.489304
              490   114.942392E+06   -57.470972E+06     -57.4702E+06      -40.5693779      344.828E+06       598.521851
              491   114.941232E+06     -57.4719E+06   -57.471164E+06       24.0352726   344.827968E+06       637.636963
              492   114.943328E+06   -57.470256E+06   -57.469748E+06      -35.9467239   344.828064E+06       225.220322
              493   114.944096E+06   -57.469432E+06    -57.46834E+06      -98.2537613   344.827392E+06       28.3853054
              494   114.944704E+06   -57.468532E+06   -57.467944E+06      -229.018173   344.827296E+06       269.626312
              495   114.953664E+06   -57.460264E+06     -57.4601E+06  -1.08021326E+03   344.825216E+06       381.867493
              496   114.944256E+06   -57.469596E+06    -57.46898E+06      -18.9936504   344.827936E+06       184.049057
              497   114.941912E+06   -57.470336E+06   -57.470092E+06      -406.697754   344.827168E+06       699.341492
              498    114.94308E+06   -57.470492E+06   -57.470136E+06       136.681885   344.827968E+06       241.014481
              499   114.937824E+06    -57.47606E+06   -57.474536E+06  -1.06489636E+03    344.82816E+06       350.597931
              500   114.942816E+06    -57.47058E+06    -57.47028E+06       232.670319    344.82768E+06       458.616791
              501   114.942368E+06   -57.471668E+06   -57.471692E+06      -70.1676254   344.827648E+06      -141.618973
              502   114.944272E+06   -57.469936E+06   -57.469828E+06      -161.706467   344.827264E+06      -276.274445
              503    114.94256E+06   -57.470824E+06   -57.470408E+06      -10.0124149   344.827744E+06      -164.739258
              504   114.941776E+06   -57.473224E+06   -57.472336E+06      -219.747421   344.828096E+06       200.075150
              505   114.943408E+06     -57.4697E+06   -57.468068E+06      -250.337173      344.828E+06      -233.019714
              506   114.943544E+06    -57.47112E+06   -57.470648E+06      -207.500076    344.82768E+06       442.608673
              507   114.950456E+06   -57.464828E+06   -57.464996E+06      -905.780884   344.827136E+06       745.994873
              508   114.949744E+06   -57.465944E+06    -57.46542E+06  -1.40483765E+03   344.827296E+06       153.551285
              509   114.942712E+06   -57.472936E+06   -57.472696E+06      -219.596786   344.827712E+06       9.49729729
              510   114.944096E+06   -57.470288E+06   -57.469916E+06      -344.245178   344.827936E+06      -79.9664764
              511   114.942232E+06   -57.472676E+06    -57.47308E+06      -261.913391      344.828E+06      -369.341827
              512    114.94348E+06   -57.470396E+06   -57.470284E+06      -112.164597    344.82784E+06      -53.4308243
              513   114.941992E+06   -57.471644E+06   -57.471576E+06      -90.9670792   344.827776E+06      -32.3920212
              514     114.9424E+06   -57.471828E+06   -57.471284E+06       39.8082848   344.828192E+06      -82.3014526
              515   114.942832E+06   -57.471052E+06     -57.4709E+06       1.13201272   344.827936E+06       67.9066162
              516    114.94188E+06    -57.47246E+06   -57.472308E+06      -145.445953   344.828256E+06       270.075195
              517   114.943856E+06   -57.469896E+06    -57.46974E+06      -150.571915   344.827936E+06      -74.3159409
              518   114.946696E+06   -57.470128E+06   -57.468596E+06   2.70026953E+03   344.827648E+06       648.976868
              519   114.940112E+06   -57.474176E+06    -57.47338E+06   2.53020142E+03   344.825632E+06       162.967896
              520   114.948192E+06   -57.467224E+06   -57.465992E+06       10.8954792   344.825824E+06       411.397552
              521   114.936888E+06   -57.476352E+06   -57.475576E+06      -942.282593   344.827072E+06       325.027771
              522   114.939056E+06     -57.4761E+06    -57.47568E+06  -1.03165417E+03    344.82816E+06      -351.103607
              523   114.948808E+06    -57.46632E+06   -57.464944E+06       746.340759   344.825568E+06       107.696495
              524    114.94236E+06   -57.470984E+06   -57.471064E+06      -72.7625122   344.827776E+06      -409.835846
              525    114.94164E+06   -57.472364E+06   -57.472588E+06       298.696747    344.83008E+06      -344.081512
              526   114.947296E+06   -57.469496E+06   -57.467752E+06   2.45263721E+03    344.82784E+06       213.270630
              527   114.954304E+06   -57.464996E+06    -57.46188E+06       817.514160   344.830016E+06       577.449219
              528   114.936792E+06   -57.470468E+06   -57.470548E+06       517.617859   344.827584E+06       329.770844
              529   114.958952E+06   -57.459984E+06     -57.4603E+06  -2.57074683E+03     344.8296E+06      -208.198059
              530   114.922168E+06   -57.490064E+06   -57.485908E+06  -1.77338733E+03   344.829312E+06       476.511780
              531     114.9484E+06   -57.465908E+06    -57.46624E+06   2.54066479E+03    344.82768E+06       212.080872
              532   114.941072E+06     -57.4714E+06    -57.47094E+06       480.926208   344.827424E+06      -542.580627
              533   114.935952E+06   -57.478208E+06   -57.477796E+06      -526.468323   344.828672E+06      -641.193542
              534   114.942896E+06   -57.470884E+06   -57.470216E+06       187.367935   344.827968E+06       89.1381607
              535   114.942632E+06   -57.473916E+06   -57.471652E+06       105.637177    344.82944E+06      -628.793335
              536     114.9384E+06   -57.476864E+06    -57.47604E+06   3.76399365E+03     344.8296E+06      -72.8420334
              537    114.95676E+06   -57.460048E+06   -57.459152E+06       83.5488739   344.827264E+06      -184.445847
              538   114.923616E+06   -57.482692E+06   -57.483156E+06      -990.079285   344.828224E+06   1.02305707E+03
              539   114.941688E+06   -57.472032E+06   -57.473088E+06      -277.055603   344.827136E+06      -194.870575
              540   114.942768E+06    -57.47094E+06   -57.471124E+06      -36.4152031   344.827776E+06       40.0914993
              541   114.944344E+06   -57.469664E+06   -57.469852E+06       153.457123   344.827424E+06       60.7894592
              542   114.943808E+06    -57.46952E+06   -57.469976E+06       468.585571   344.827008E+06       99.9088669
              543   114.942552E+06   -57.470648E+06   -57.471116E+06      -334.340515   344.827232E+06       67.3707886
              544   114.947064E+06   -57.467092E+06   -57.468156E+06      -473.174927   344.827072E+06      -552.790222
              545   114.940704E+06   -57.472608E+06   -57.472196E+06   1.47879346E+03   344.828736E+06      -371.607422
              546   114.938976E+06    -57.47634E+06   -57.476108E+06       328.452362   344.827744E+06  -1.09225659E+03
              547    114.94256E+06   -57.471488E+06     -57.4712E+06      -196.494843   344.827744E+06      -80.5227737
              548   114.941256E+06   -57.474724E+06   -57.475312E+06   2.33884497E+03   344.829184E+06       257.904388
              549   114.935056E+06   -57.473552E+06   -57.473936E+06       451.435486   344.826496E+06      -645.230774
              550   114.947728E+06   -57.466336E+06     -57.4671E+06      -473.591034   344.827296E+06       213.544571
              551   114.943824E+06   -57.470212E+06   -57.470344E+06      -20.3263931   344.827776E+06      -23.3224373
              552      114.943E+06   -57.470848E+06   -57.471108E+06       44.8908424    344.82768E+06       31.6589298
              553   114.943864E+06   -57.470164E+06    -57.47016E+06       177.362793   344.828192E+06       182.876404
              554   114.943384E+06   -57.470512E+06   -57.471056E+06       103.370781   344.827616E+06      -39.4070930
              555   114.944456E+06     -57.4685E+06   -57.469036E+06       312.345093     344.8272E+06      -362.915405
              556    114.94264E+06   -57.471436E+06   -57.471612E+06       124.615868   344.828192E+06       75.1170120
              557   114.942568E+06   -57.471236E+06   -57.471552E+06      -29.7035751    344.82768E+06       104.969193
              558   114.942488E+06     -57.4705E+06   -57.470444E+06       352.792694   344.827968E+06      -420.523560
              559   114.944248E+06   -57.468616E+06   -57.468208E+06       390.394684   344.827744E+06      -319.351410
              560   114.943816E+06   -57.469912E+06   -57.469552E+06       195.601486   344.827904E+06      -14.9349661
              561    114.94052E+06   -57.474244E+06   -57.473292E+06       373.930969      344.828E+06       362.469482
              562   114.941232E+06    -57.47188E+06   -57.472148E+06       590.057434   344.827392E+06       405.330109
              563   114.942344E+06   -57.471564E+06   -57.471644E+06       42.7592850   344.827904E+06      -58.7959900
              564    114.94276E+06   -57.470864E+06   -57.470512E+06      -152.259171   344.827872E+06      -94.1310730
              565   114.947552E+06   -57.468136E+06   -57.466684E+06   2.07719702E+03   344.829856E+06      -147.614578
              566     114.9268E+06   -57.485044E+06   -57.485868E+06   6.89216162E+03    344.82832E+06       273.687103
              567     114.9442E+06   -57.468508E+06   -57.468336E+06       473.771576   344.826752E+06      -466.452057
              568   114.949368E+06   -57.468584E+06   -57.468008E+06   1.29749438E+03   344.827936E+06      -350.427948
              569   114.938808E+06   -57.474488E+06   -57.473936E+06  -620.117962E-03   344.828512E+06      -31.7848167
              570    114.94384E+06   -57.469624E+06   -57.469184E+06       44.8831482      344.828E+06       125.961128
              571   114.942392E+06    -57.47138E+06    -57.47106E+06      -106.422348   344.827712E+06       92.0248489
              572   114.942928E+06    -57.47054E+06   -57.470312E+06       199.384857   344.827744E+06       32.2521439
              573   114.942504E+06   -57.471228E+06    -57.47078E+06      -48.8415298   344.827872E+06      -83.8728638
              574     114.9426E+06   -57.471232E+06   -57.471132E+06       18.3392029      344.828E+06       215.591217
              575    114.94152E+06   -57.472312E+06    -57.47152E+06       153.465271   344.827744E+06      -28.0942326
              576      114.943E+06   -57.470672E+06   -57.470356E+06       94.4116440   344.827808E+06       94.0003433
              577   114.942616E+06    -57.47116E+06   -57.471104E+06      -225.987717   344.827712E+06      -78.6454391
              578   114.941768E+06     -57.4718E+06   -57.471076E+06       149.802231   344.827904E+06      -386.820679
              579    114.94388E+06   -57.470508E+06    -57.47004E+06      -24.8457432   344.828384E+06      -187.382233
              580   114.942536E+06     -57.4653E+06    -57.46934E+06   2.57612842E+03     344.8248E+06      -791.269775
              581      114.924E+06    -57.48192E+06   -57.480752E+06      -459.020325   344.828352E+06       707.789063
              582   114.942792E+06   -57.467788E+06    -57.46584E+06   1.25604053E+03   344.826944E+06   1.19581274E+03
              583   115.003864E+06   -57.421808E+06   -57.422544E+06   4.69437207E+03   344.824672E+06       883.697876
              584    114.93924E+06   -57.472548E+06   -57.473232E+06   1.86645007E+03   344.823488E+06       319.574463
              585   114.942624E+06   -57.470876E+06   -57.470704E+06      -198.356277   344.827552E+06       88.7347107
              586   114.942672E+06   -57.471164E+06   -57.470876E+06      -19.5811806   344.827776E+06       66.4317169
              587   114.942864E+06   -57.470844E+06   -57.470708E+06       11.2905197    344.82768E+06       53.4144859
              588   114.937664E+06    -57.47812E+06   -57.477212E+06      -796.677307   344.826912E+06      -649.837769
              589   114.942864E+06   -57.471148E+06   -57.470756E+06      -2.32086873   344.827904E+06      -37.4387436
              590    114.94216E+06    -57.47186E+06   -57.471496E+06       67.4438934      344.828E+06      -68.9732132
              591   114.943056E+06    -57.47104E+06    -57.47058E+06       165.963135   344.828128E+06       24.0368595
              592   114.949536E+06   -57.467276E+06   -57.466876E+06      -42.7792282   344.828288E+06      -228.717422
              593   114.946848E+06   -57.470184E+06   -57.470332E+06   1.66526013E+03   344.826592E+06       628.974792
              594   114.942768E+06   -57.470484E+06   -57.470444E+06       801.435730   344.827648E+06       303.417236
              595    114.93652E+06   -57.473496E+06   -57.474724E+06      -723.088379     344.8272E+06  -1.01671765E+03
              596    114.93628E+06   -57.477084E+06   -57.477388E+06   2.28914771E+03   344.828256E+06   1.64337329E+03
              597   114.943664E+06   -57.470104E+06    -57.47032E+06       89.5556412   344.827776E+06       394.716187
              598   114.941504E+06   -57.472344E+06   -57.472608E+06       163.933350   344.827648E+06       254.000046
              599   114.937704E+06   -57.477328E+06   -57.476884E+06       417.350128   344.829024E+06      -145.438644
              600   114.941728E+06    -57.46968E+06   -57.473884E+06   1.00240533E+03   344.827872E+06      -235.225342
              601    114.93996E+06   -57.473268E+06   -57.474076E+06       216.272705   344.827456E+06       658.920166
              602   114.943552E+06   -57.469372E+06   -57.469572E+06      -204.007019   344.828064E+06       9.27301407
              603    114.92944E+06   -57.486512E+06   -57.484212E+06   3.57290869E+03      344.832E+06  -1.13727124E+03
              604   114.935576E+06   -57.474968E+06     -57.4787E+06      -208.904556   344.827232E+06      -878.492981
              605   114.942616E+06   -57.470368E+06    -57.47322E+06   1.37569031E+03   344.828352E+06  -1.05826563E+03
              606   114.935768E+06   -57.475452E+06   -57.474068E+06  -1.55047461E+03   344.829312E+06       182.176132
              607   114.942712E+06   -57.471264E+06    -57.47126E+06      -98.9408340   344.827872E+06      -99.0261536
              608   114.942864E+06   -57.470868E+06   -57.470968E+06       7.35243130   344.827712E+06       22.7345047
              609   114.943448E+06   -57.470652E+06   -57.470224E+06      -37.1752510   344.827904E+06   419.058800E-03
              610   114.942568E+06   -57.471256E+06   -57.471124E+06       9.69560051   344.827744E+06       119.360428
              611    114.94296E+06   -57.470868E+06   -57.470512E+06      -8.37672424   344.827776E+06       109.680702
              612   114.942048E+06   -57.471396E+06   -57.471516E+06       28.1167374   344.827712E+06      -217.417358
              613     114.9416E+06   -57.472172E+06   -57.472688E+06      -270.252197   344.827584E+06      -420.679138
              614   114.942824E+06   -57.470808E+06    -57.47064E+06      -6.88852358   344.827616E+06       53.0608864
              615   114.943248E+06   -57.470056E+06   -57.470156E+06      -144.936844   344.827872E+06      -232.076324
              616   114.941752E+06   -57.471856E+06    -57.47276E+06      -423.486267   344.826816E+06      -269.764160
              617    114.94224E+06    -57.47136E+06   -57.471228E+06      -94.3795700   344.827744E+06      -14.3425665
              618   114.942744E+06   -57.471356E+06   -57.470996E+06       165.730942   344.828128E+06      -4.40527296
              619   114.942776E+06   -57.471068E+06   -57.470816E+06      -61.4959335   344.827712E+06       50.1440811
              620   114.942656E+06   -57.471056E+06   -57.471084E+06       36.9790154   344.828096E+06       250.544861
              621   114.943504E+06    -57.47016E+06   -57.469964E+06      -19.5090847   344.827808E+06      -39.6479645
              622   114.943904E+06   -57.470492E+06   -57.470056E+06      -272.741852    344.82784E+06      -62.1132622
              623   114.943056E+06   -57.470672E+06   -57.470552E+06      -70.3682709    344.82768E+06      -19.3961334
              624   114.942944E+06   -57.470928E+06    -57.47132E+06      -234.131393   344.827776E+06      -285.226563
              625   114.942368E+06   -57.471664E+06    -57.47172E+06      -89.9217758   344.828096E+06      -127.095970
              626   114.942328E+06   -57.471744E+06   -57.472028E+06      -178.158875   344.828096E+06      -160.438110
              627   114.942624E+06   -57.471536E+06   -57.471512E+06      -199.448135   344.827968E+06      -237.282898
              628   114.943112E+06   -57.470784E+06   -57.470984E+06      -52.9718094   344.827936E+06      -133.771210
              629    114.94248E+06    -57.47136E+06   -57.471888E+06      -126.190544   344.827936E+06      -232.861771
              630   114.944808E+06   -57.469764E+06   -57.469336E+06       156.999084      344.828E+06       20.2484913
              631   114.942896E+06   -57.470932E+06   -57.470504E+06       5.45937634   344.827648E+06       112.375298
              632   114.941168E+06    -57.47276E+06   -57.472628E+06      -91.3329620   344.827776E+06      -129.739395
              633   114.942648E+06    -57.47106E+06   -57.470724E+06      -167.073807   344.827872E+06      -130.273514
              634   114.940944E+06   -57.473672E+06   -57.473904E+06       253.097855   344.827744E+06       337.959717
              635   114.943408E+06   -57.470432E+06   -57.470272E+06      -376.575928   344.827904E+06      -73.4232025
              636   114.941448E+06    -57.47226E+06   -57.472832E+06      -144.833618   344.827744E+06      -375.547699
              637    114.90796E+06     -57.4954E+06   -57.496352E+06  -1.15187085E+03   344.829152E+06       762.794983
              638   114.949064E+06   -57.466736E+06   -57.466044E+06   1.76751758E+03   344.829056E+06       905.900452
              639   114.948424E+06   -57.467664E+06   -57.467384E+06  -1.33466357E+03   344.828128E+06      -660.351440
              640    114.94332E+06   -57.472232E+06   -57.471452E+06       699.185852   344.828896E+06       -261.78125
              641   114.949328E+06   -57.462716E+06   -57.462448E+06  -3.58974756E+03   344.825312E+06      -264.665375
              642   114.942496E+06    -57.47142E+06    -57.47146E+06      -197.935318   344.827808E+06      -23.5768280
              643   114.935328E+06   -57.478032E+06   -57.477724E+06       358.329895   344.829344E+06      -158.090027
              644   114.940632E+06   -57.475476E+06   -57.473656E+06       448.524078   344.828928E+06      -171.484329
              645   114.929848E+06     -57.4859E+06   -57.483476E+06  -3.32968970E+03   344.830528E+06      -462.167725
              646   114.952096E+06   -57.468996E+06    -57.46788E+06  -3.56072192E+03   344.828128E+06      -598.735474
              647   114.942608E+06   -57.471564E+06   -57.472364E+06      -31.3419724   344.827712E+06      -663.590820
              648   114.954296E+06   -57.458468E+06   -57.458136E+06  -1.93002136E+03   344.826272E+06  -3.04785669E+03
              649   114.926528E+06   -57.483028E+06   -57.482492E+06       356.171936    344.83024E+06      -405.962097
              650   114.968672E+06   -57.453596E+06    -57.45332E+06   2.26417285E+03   344.829248E+06       298.275208
              651   114.944584E+06   -57.469696E+06      -57.471E+06       259.771271   344.827392E+06      -413.411072
              652   114.943816E+06       -57.47E+06   -57.470832E+06       408.382263   344.827584E+06       152.654938
              653   114.947096E+06   -57.467696E+06   -57.466884E+06      -167.193390   344.827168E+06      -300.267944
              654   114.932712E+06   -57.474768E+06   -57.473712E+06  -3.48385156E+03   344.826016E+06       313.883453
              655    114.92724E+06   -57.484948E+06    -57.48516E+06      -73.1041489   344.831584E+06       937.931702
              656   114.941336E+06    -57.47414E+06    -57.47376E+06       131.742203    344.82832E+06       413.468781
              657   114.959328E+06   -57.458592E+06    -57.45722E+06  -2.47736304E+03   344.829728E+06      -717.083191
              658   114.946648E+06    -57.46744E+06   -57.467296E+06       63.1644707   344.827488E+06      -106.341988
              659   114.940808E+06   -57.473228E+06    -57.47338E+06      -483.957886      344.828E+06      -369.388092
              660   114.941976E+06   -57.471792E+06   -57.471556E+06      -167.310593   344.827776E+06      -88.0591507
              661   114.938856E+06   -57.475544E+06   -57.476764E+06      -536.188232   344.826912E+06  -1.36583276E+03
              662   114.945304E+06   -57.470148E+06   -57.469464E+06       336.381775   344.827456E+06       37.7856102
              663   114.946056E+06   -57.468148E+06     -57.4676E+06   1.24072754E+03    344.82848E+06       490.861206
              664   114.953688E+06    -57.46306E+06   -57.463232E+06       739.559021   344.828992E+06       324.645599
              665   114.994768E+06   -57.429512E+06    -57.42974E+06  -11.9451582E+03   344.824256E+06   1.05251953E+03
              666    114.94248E+06    -57.47094E+06   -57.471596E+06      -11.2574339    344.82768E+06       90.7730942
              667   114.942184E+06   -57.471548E+06   -57.473268E+06       169.905350   344.826752E+06      -4.95264339
              668   114.941544E+06   -57.472828E+06    -57.47296E+06      -286.664185   344.828992E+06  -1.02705408E+03
              669    114.94344E+06    -57.46998E+06    -57.46942E+06      -313.985046      344.828E+06      -339.404724
              670   114.947848E+06   -57.467548E+06   -57.468888E+06       890.127808   344.827872E+06       379.532990
              671   114.947984E+06    -57.46738E+06   -57.466912E+06      -159.383713   344.827648E+06       59.7469292
              672   114.946288E+06   -57.467804E+06   -57.467948E+06      -431.654755   344.828032E+06      -578.900818
              673   114.943096E+06    -57.46962E+06   -57.470404E+06       95.4775391   344.827488E+06       37.1352539
              674   114.942296E+06   -57.472176E+06   -57.471648E+06      -138.433182   344.828032E+06      -134.991592
              675   114.940224E+06   -57.472412E+06   -57.472532E+06      -854.542847    344.82816E+06       424.013153
              676   114.946056E+06   -57.468368E+06    -57.46822E+06  -1.02967480E+03   344.828992E+06      -745.600281
              677    114.94228E+06    -57.47052E+06   -57.471724E+06      -703.504333   344.827264E+06  -1.01141724E+03
              678   114.941064E+06   -57.471412E+06    -57.47126E+06      -917.021606   344.828384E+06       197.128159
              679    114.94552E+06    -57.46698E+06   -57.466692E+06      -944.302612   344.827296E+06      -273.427490
              680   114.944752E+06   -57.469192E+06   -57.469484E+06      -714.556885   344.828032E+06       141.516876
              681   114.945536E+06   -57.468736E+06   -57.468824E+06       183.767181    344.82624E+06       409.283112
              682    114.94308E+06   -57.470856E+06     -57.4706E+06      -101.821983   344.827968E+06      -87.1988373
              683   114.954416E+06   -57.459136E+06   -57.460996E+06   1.07035266E+03    344.82656E+06   1.24004553E+03
              684    114.97304E+06      -57.446E+06   -57.447656E+06   3.50274365E+03   344.827232E+06       265.794983
              685   114.942416E+06   -57.472196E+06   -57.472268E+06      -423.087646   344.828032E+06      -253.688965
              686   114.936712E+06    -57.47388E+06   -57.477396E+06      -551.419800   344.828704E+06      -214.923630
              687   114.939992E+06   -57.470064E+06   -57.473352E+06  -1.32107556E+03   344.829696E+06  -1.07617993E+03
              688   114.949488E+06   -57.465332E+06   -57.465652E+06      -356.103973   344.827392E+06      -178.920319
              689   114.937872E+06   -57.476684E+06   -57.477332E+06      -979.874512   344.827936E+06       834.587830
              690   114.941064E+06    -57.46938E+06   -57.472516E+06      -199.578201   344.828896E+06       263.173706
              691   114.943104E+06   -57.473808E+06     -57.4742E+06       937.592712   344.827744E+06      -12.3816023
              692   114.957464E+06   -57.463196E+06   -57.462948E+06  -1.60769727E+03   344.828288E+06      -349.873993
              693   114.941616E+06   -57.472824E+06    -57.47406E+06      -90.9786377   344.828288E+06      -409.254303
              694   114.939504E+06   -57.474844E+06   -57.476216E+06      -64.6313248   344.828608E+06      -425.651184
              695   114.943504E+06   -57.470448E+06   -57.470784E+06       231.444092   344.827616E+06       40.8261566
              696   114.942432E+06   -57.471136E+06   -57.471572E+06      -212.615204   344.827456E+06       148.424911
              697   114.940712E+06   -57.472688E+06     -57.4738E+06       51.1822624   344.827328E+06       74.9705963
              698   114.939128E+06    -57.47448E+06   -57.475804E+06       626.510071   344.827008E+06       32.7970200
              699    114.95016E+06   -57.466836E+06   -57.466292E+06      -430.737579   344.826368E+06      -216.526382
              700   114.937328E+06   -57.473644E+06   -57.475836E+06   1.01964911E+03   344.827616E+06      -588.754211
              701   114.944136E+06   -57.470152E+06    -57.47072E+06      -277.326080   344.827776E+06      -394.297455
              702   114.939384E+06   -57.473928E+06   -57.474228E+06   1.54587805E+03   344.827424E+06       355.676697
              703    114.95472E+06    -57.46018E+06   -57.460752E+06   2.52951416E+03   344.825856E+06       164.091248
              704    114.94408E+06   -57.470216E+06   -57.470184E+06      -234.607971   344.827488E+06       206.264572
              705   114.948352E+06   -57.465252E+06   -57.464688E+06       557.065674   344.826464E+06       717.011475
              706     114.9428E+06   -57.471456E+06    -57.47094E+06       65.1116791   344.827936E+06      -10.2755919
              707   114.946496E+06    -57.46768E+06   -57.467636E+06      -493.850800   344.828544E+06       828.197144
              708   114.943992E+06     -57.4698E+06   -57.470004E+06      -630.025940   344.826432E+06      -255.734238
              709    114.94584E+06   -57.468736E+06   -57.467268E+06      -255.684341     344.8288E+06      -367.108612
              710   114.944984E+06   -57.469248E+06   -57.469576E+06      -752.022644   344.828064E+06       49.9287529
              711   114.941912E+06   -57.472616E+06   -57.472644E+06       104.726776    344.82784E+06      -20.2827301
              712   114.943736E+06   -57.470596E+06   -57.470276E+06       317.555756   344.827808E+06       129.190292
              713    114.93912E+06   -57.475868E+06   -57.477064E+06       280.256592   344.828864E+06       928.704285
              714   114.936416E+06   -57.478416E+06   -57.477216E+06   1.25043176E+03   344.831296E+06   1.01265277E+03
              715   114.936568E+06   -57.474852E+06   -57.474484E+06   1.06206860E+03   344.828672E+06  -1.32841443E+03
              716   114.943192E+06   -57.471892E+06   -57.472248E+06      -475.708008   344.829024E+06      -179.993988
              717   114.944824E+06   -57.469748E+06   -57.467652E+06  -1.31774609E+03    344.82768E+06       704.120728
              718   114.904768E+06   -57.502468E+06   -57.501724E+06  -5.84923291E+03    344.82944E+06   1.00458765E+03
              719   114.951512E+06   -57.464656E+06   -57.461464E+06  -1.64637329E+03   344.829344E+06       320.754456
              720   114.947592E+06    -57.46514E+06   -57.467524E+06   1.24509924E+03   344.830112E+06      -565.442261
              721   114.940768E+06    -57.47096E+06   -57.471756E+06   1.54401904E+03    344.83232E+06      -789.833618
              722   114.937608E+06   -57.467792E+06   -57.467744E+06   6.76460254E+03   344.822048E+06      -595.241760
              723   115.006088E+06   -57.421936E+06   -57.422872E+06  -2.14585742E+03   344.823904E+06       234.043610
              724   114.942712E+06   -57.472148E+06    -57.47338E+06       353.222504   344.827456E+06      -902.105286
              725   114.940936E+06   -57.473008E+06     -57.4733E+06      -32.4990921   344.828064E+06      -211.456909
              726    114.94128E+06   -57.471572E+06   -57.472212E+06   1.04966614E+03   344.827904E+06       298.863861
              727   114.942752E+06   -57.471384E+06    -57.47104E+06      -3.83649540   344.827968E+06   443.952143E-03
              728   114.944824E+06   -57.470028E+06   -57.469524E+06      -72.0286331   344.827744E+06      -429.812531
              729    114.94328E+06   -57.470824E+06     -57.4714E+06      -8.59653854   344.827744E+06      -213.505020
              730   114.942128E+06    -57.47252E+06   -57.473272E+06      -718.221436   344.827744E+06      -844.253113
              731   114.944384E+06    -57.47006E+06   -57.469876E+06      -929.962463   344.828192E+06      -568.771301
              732   114.942216E+06   -57.472576E+06   -57.472484E+06      -611.843567   344.828128E+06      -446.497986
              733   114.942968E+06    -57.47112E+06   -57.471008E+06      -138.660721   344.827904E+06      -123.280479
              734    114.94256E+06   -57.471236E+06   -57.471156E+06      -12.8557415   344.827744E+06      -13.5291414
              735    114.94264E+06   -57.470796E+06   -57.471068E+06       110.550774   344.827584E+06       133.652115
              736   114.943616E+06   -57.470928E+06   -57.470696E+06       53.7820625   344.828032E+06      -116.254318
              737   114.941192E+06   -57.481588E+06   -57.481268E+06       778.727478   344.834112E+06  -1.52834937E+03
              738   114.946992E+06    -57.46828E+06    -57.46774E+06      -167.972534   344.827968E+06       13.4677267
              739   114.944288E+06   -57.470232E+06   -57.469804E+06      -287.618652   344.828192E+06      -369.827240
              740    114.94388E+06   -57.470988E+06   -57.470848E+06      -787.380310   344.827744E+06      -463.927551
              741    114.94488E+06   -57.469196E+06    -57.46942E+06      -283.098419   344.828032E+06      -83.6312408
              742   114.942312E+06   -57.471532E+06   -57.471472E+06       19.2145596   344.828064E+06      -108.906380
              743   114.944448E+06   -57.470108E+06    -57.46996E+06      -259.585510    344.82784E+06      -187.385849
              744   114.942648E+06   -57.471316E+06   -57.471004E+06       14.5459833   344.828096E+06      -159.410187
              745    114.94192E+06     -57.4724E+06   -57.472448E+06      -82.7598495   344.828672E+06      -68.0596390
              746   114.937896E+06   -57.476532E+06    -57.47678E+06       766.169006   344.828416E+06      -491.396210
              747    114.94668E+06   -57.466884E+06     -57.4655E+06       80.4813538   344.828096E+06       795.281555
              748   114.942592E+06   -57.471084E+06    -57.47074E+06       23.1388130   344.827744E+06       50.7720032
              749   114.943376E+06   -57.470692E+06   -57.470192E+06       182.755798   344.828256E+06       69.9546509
              750   114.942944E+06   -57.471336E+06   -57.470532E+06       129.618484   344.828448E+06       201.651260
              751     114.9478E+06   -57.467052E+06   -57.467188E+06      -596.671326    344.82768E+06       83.4682770
              752   114.937336E+06   -57.476172E+06    -57.47534E+06   1.97020557E+03   344.829792E+06      -173.086395
              753   114.938808E+06   -57.472896E+06   -57.473272E+06      -277.152954   344.828416E+06       62.5403671
              754   114.942912E+06   -57.469968E+06   -57.469304E+06       242.741882    344.82688E+06       525.595459
              755   114.960352E+06   -57.452424E+06    -57.45312E+06      -187.375412   344.823392E+06   1.27905005E+03
              756   114.951816E+06   -57.461416E+06   -57.462024E+06      -662.036743   344.825024E+06       698.432190
              757   114.946808E+06   -57.466048E+06   -57.465612E+06       92.0534897    344.82752E+06       974.411316
              758    114.94568E+06   -57.466944E+06   -57.466548E+06      -140.412369   344.827776E+06       903.539368
              759    114.94236E+06   -57.471328E+06   -57.471012E+06      -12.9827089   344.827936E+06       78.2022247
              760   114.942712E+06   -57.470272E+06   -57.470416E+06       77.3334961   344.827968E+06      -2.30408645
              761   114.942896E+06   -57.470356E+06   -57.469744E+06       238.240280   344.828096E+06       10.8215380
              762   114.945064E+06    -57.46846E+06     -57.4681E+06      -138.786804   344.827584E+06      -588.485718
              763   114.941664E+06   -57.471576E+06   -57.471888E+06      -653.051697   344.827392E+06      -420.415955
              764   114.944696E+06     -57.4691E+06     -57.4685E+06      -88.1553955   344.828096E+06      -220.408157
              765   114.948976E+06   -57.463468E+06   -57.462748E+06   1.36625439E+03      344.824E+06  -882.406294E-03
              766   114.936352E+06   -57.475944E+06   -57.477188E+06  -1.08097107E+03   344.828224E+06      -404.338257
              767   114.946552E+06   -57.467208E+06   -57.466064E+06      -163.171753   344.827744E+06      -549.106262
              768   114.945232E+06   -57.467384E+06    -57.46822E+06       603.325256   344.827552E+06      -695.786682
              769    114.94376E+06   -57.468388E+06   -57.469128E+06      -168.289154      344.828E+06       521.503540
              770    114.94184E+06   -57.471508E+06   -57.471364E+06      -93.1315231    344.82784E+06      -218.971252
              771   114.942112E+06   -57.471464E+06   -57.471268E+06  -152.138665E-03   344.828064E+06      -55.1216049
              772   114.938968E+06   -57.474252E+06   -57.474848E+06       265.961731   344.828416E+06      -286.318939
              773    114.93996E+06   -57.473564E+06   -57.473392E+06       394.719391    344.82832E+06      -28.7311020
              774   114.943672E+06   -57.470232E+06   -57.470344E+06       1.15938973   344.827968E+06       244.528168
              775    114.94284E+06    -57.47138E+06   -57.471828E+06       31.0046463   344.827904E+06       171.229752
              776   114.943432E+06   -57.471068E+06   -57.471276E+06       71.9368515   344.827904E+06      -84.9527054
              777    114.94324E+06   -57.470872E+06   -57.471232E+06       33.9569626   344.827808E+06       146.869446
              778   114.942312E+06   -57.471364E+06   -57.471496E+06      -276.950195      344.828E+06       148.726486
              779   114.942872E+06   -57.471068E+06    -57.47108E+06       100.942307   344.828032E+06       270.953400
              780   114.942664E+06   -57.471368E+06   -57.471732E+06      -9.40276623   344.827904E+06       100.939903
              781   114.942688E+06   -57.471268E+06   -57.471376E+06      -108.161461   344.827968E+06       61.1714249
              782   114.942616E+06   -57.471196E+06    -57.47132E+06       70.4756546   344.827936E+06       280.177032
              783   114.941512E+06     -57.4732E+06   -57.473916E+06       7.77552748   344.828064E+06      -129.071320
              784   114.932944E+06   -57.479044E+06   -57.479032E+06   1.44804297E+03   344.830048E+06      -842.170166
              785    114.94004E+06   -57.474304E+06    -57.47402E+06       171.159317   344.828704E+06      -450.861694
              786   114.948208E+06   -57.464816E+06    -57.46504E+06       579.122925   344.827968E+06      -688.076233
              787   114.947064E+06    -57.46752E+06   -57.467532E+06       672.144104   344.827584E+06       42.2930832
              788    114.94044E+06   -57.473316E+06   -57.473396E+06       518.159546   344.827776E+06       326.833466
              789   114.942552E+06   -57.470596E+06   -57.469188E+06      -965.326538   344.829472E+06       291.753296
              790   114.940856E+06   -57.472968E+06   -57.473008E+06       355.450623   344.828256E+06       132.394562
              791     114.9424E+06   -57.472168E+06   -57.472084E+06       532.342468   344.827872E+06       444.658264
              792   114.942552E+06    -57.47112E+06   -57.471228E+06       234.895248   344.827712E+06      -2.33689618
              793   114.947032E+06    -57.46424E+06   -57.464972E+06  -2.04253027E+03   344.827424E+06       500.258606
              794   114.943384E+06   -57.470792E+06    -57.47088E+06       198.872803   344.828064E+06       152.809921
              795   114.942896E+06    -57.47142E+06   -57.471224E+06       174.393417    344.82832E+06      -143.740997
              796   114.963344E+06   -57.453028E+06   -57.453296E+06   9.12906738E+03   344.826592E+06       197.566833
              797    114.93948E+06    -57.47368E+06   -57.473508E+06      -78.1171951    344.82944E+06      -91.4503098
              798   114.946264E+06   -57.468552E+06   -57.468264E+06       285.139832   344.827712E+06      -144.804657
              799   114.937216E+06   -57.473912E+06   -57.473504E+06  -1.93744250E+03   344.825344E+06       117.014343
              800   114.942904E+06   -57.470968E+06   -57.471044E+06       177.536011   344.828128E+06      -81.2455521
              801     114.9402E+06   -57.472812E+06   -57.473156E+06      -559.543884    344.82704E+06      -241.522629
              802   114.942864E+06   -57.470824E+06   -57.470812E+06      -15.6378145   344.827712E+06       12.1499453
              803   114.942592E+06   -57.471156E+06   -57.471028E+06       65.8134308    344.82768E+06       8.59384346
              804   114.942392E+06   -57.471296E+06   -57.471072E+06      -80.4404602   344.827488E+06       88.3091202
              805   114.947496E+06   -57.467416E+06   -57.467184E+06       429.479126   344.827744E+06      -76.3807678
              806   114.940416E+06   -57.473328E+06   -57.473908E+06       271.102325   344.827744E+06       79.4231415
              807   114.943272E+06   -57.470676E+06   -57.470708E+06      -51.5068130   344.827872E+06       3.44577527
              808   114.943256E+06   -57.470728E+06   -57.470636E+06      -42.6011467   344.827936E+06      -178.533463
              809   114.944344E+06   -57.469976E+06   -57.470172E+06       250.172714   344.827584E+06      -27.8739586
              810   114.942688E+06   -57.471376E+06   -57.471528E+06       111.259598   344.827648E+06      -74.8777008
              811   114.944912E+06   -57.469188E+06   -57.468912E+06      -311.878296   344.827808E+06      -8.77176952
              812   114.945024E+06   -57.469728E+06   -57.469236E+06       67.6624374      344.828E+06       58.6246223
              813    114.94284E+06   -57.471056E+06   -57.470692E+06       64.0608139   344.827936E+06      -18.6153984
              814   114.942696E+06   -57.471308E+06     -57.4712E+06      -76.1349869   344.827872E+06      -63.8097534
              815   114.943192E+06   -57.470724E+06    -57.47056E+06      -67.1791916   344.827936E+06      -92.8329773
              816   114.912392E+06   -57.494056E+06   -57.494896E+06   1.22171497E+03   344.825888E+06      -137.155914
              817   114.943112E+06   -57.470736E+06   -57.470976E+06      -27.7551384   344.827808E+06      -113.670067
              818   114.942944E+06   -57.470872E+06   -57.470572E+06       27.5116482   344.827968E+06      -155.052628
              819   114.944656E+06   -57.469196E+06   -57.469716E+06      -350.953156   344.827488E+06       284.300232
              820    114.94316E+06      -57.471E+06   -57.471068E+06       176.199142    344.82752E+06       133.018860
              821   114.943704E+06   -57.470284E+06   -57.469928E+06      -119.920280   344.827616E+06       138.692230
              822   114.945008E+06   -57.469584E+06   -57.468576E+06       42.7845840   344.827264E+06      -121.779808
              823   114.942968E+06   -57.470648E+06   -57.470284E+06       86.3738174   344.827776E+06       75.3643341
              824   114.942784E+06   -57.470772E+06    -57.47074E+06      -11.9279041   344.827744E+06       17.9270897
              825   114.939952E+06   -57.474064E+06    -57.47372E+06       135.669037    344.82816E+06      -581.662415
              826     114.9412E+06   -57.472844E+06   -57.472316E+06      -48.1147766   344.828224E+06      -752.737549
              827   114.941688E+06   -57.472188E+06   -57.472032E+06      -4.12750578    344.82784E+06      -25.0839634
              828   114.942256E+06   -57.471824E+06   -57.471544E+06       59.3476448   344.827744E+06       131.443420
              829    114.94196E+06   -57.471516E+06   -57.471632E+06      -87.7250290   344.827968E+06      -373.632843
              830   114.942808E+06   -57.470608E+06   -57.470468E+06      -125.699173   344.827968E+06      -35.2399864
              831   114.941696E+06    -57.47202E+06   -57.472088E+06       16.4767017   344.828128E+06      -26.6117535
              832   114.944448E+06     -57.4692E+06   -57.468288E+06      -107.456398   344.827712E+06       99.0413437
              833   114.924168E+06   -57.488424E+06   -57.490768E+06  -1.10989697E+03   344.827008E+06   1.02624048E+03
              834   114.943248E+06   -57.470808E+06   -57.470712E+06      -80.2143326   344.827936E+06      -102.508644
              835   114.943536E+06   -57.470264E+06   -57.470504E+06      -105.588211    344.82784E+06      -167.098938
              836   114.941432E+06   -57.473452E+06   -57.472532E+06       21.2694016      344.828E+06       208.453705
              837   114.944008E+06   -57.470244E+06   -57.470028E+06      -117.364250    344.82784E+06       8.30490780
              838   114.943752E+06   -57.470184E+06   -57.469968E+06      -167.950607    344.82784E+06       28.2196770
              839   114.944008E+06    -57.47014E+06   -57.470128E+06      -137.472672   344.827648E+06      -57.8580475
              840   114.941992E+06    -57.47182E+06   -57.471884E+06       85.1422958   344.828224E+06      -143.486954
              841   114.942648E+06   -57.471556E+06    -57.47136E+06      -53.5704498   344.828128E+06      -57.2874489
              842   114.944368E+06     -57.4696E+06   -57.469264E+06      -20.8336830   344.827904E+06      -39.9452667
              843   114.942944E+06   -57.471268E+06    -57.47124E+06      -219.101639   344.827936E+06      -233.485962
              844   114.944104E+06   -57.470016E+06   -57.469932E+06      -318.056885   344.827904E+06       226.575562
              845   114.944048E+06   -57.469856E+06   -57.469652E+06      -155.056107   344.827936E+06       106.851624
              846   114.943008E+06   -57.471096E+06   -57.471264E+06      -45.8765221   344.827968E+06       163.723373
              847    114.94228E+06   -57.471952E+06   -57.472012E+06      -18.2866745   344.828416E+06       129.872742
              848   114.942704E+06    -57.47142E+06   -57.471592E+06      -97.8981171   344.827936E+06       105.198143
              849   114.941688E+06   -57.472156E+06    -57.47232E+06      -31.0684204   344.828064E+06       167.373886
              850   114.943192E+06   -57.470464E+06   -57.470576E+06      -78.2250748      344.828E+06       95.4192200
              851   114.943256E+06   -57.470416E+06   -57.470636E+06      -85.7008667   344.827904E+06       158.720459
              852    114.94208E+06   -57.471724E+06   -57.471844E+06       115.322556   344.828032E+06       89.2116928
              853    114.93636E+06    -57.47808E+06   -57.479712E+06      -134.518890   344.828032E+06       376.130341
              854   114.945008E+06   -57.468224E+06     -57.4674E+06      -324.258789   344.828096E+06   1.21874548E+03
              855   114.942376E+06   -57.471804E+06   -57.470844E+06      -40.1922951   344.827744E+06       192.920471
              856   114.943704E+06    -57.46946E+06   -57.468748E+06       142.789658   344.827616E+06      -646.291565
              857   114.943824E+06   -57.470208E+06   -57.470396E+06       22.8778763    344.82784E+06      -206.869751
              858   114.942704E+06    -57.47186E+06   -57.472036E+06       94.9788208   344.828448E+06      -141.933884
              859   114.942464E+06   -57.471136E+06   -57.470896E+06      -50.6657372   344.827776E+06      -147.240799
              860    114.94308E+06    -57.47072E+06   -57.470548E+06       21.1820278    344.82784E+06       43.0991554
              861   114.942696E+06     -57.4698E+06   -57.469408E+06      -512.156006   344.827296E+06      -381.308472
              862   114.984232E+06   -57.436452E+06   -57.438076E+06   1.28316833E+03   344.820672E+06   2.12953027E+03
              863   114.943928E+06   -57.470148E+06   -57.469992E+06      -67.0231094   344.827968E+06      -42.9832344
              864   114.943032E+06   -57.471656E+06   -57.471788E+06      -723.829529   344.828608E+06       101.882751
              865    114.94756E+06    -57.46712E+06    -57.46748E+06      -98.7803955   344.827456E+06       76.1090546
              866    114.94416E+06   -57.470228E+06   -57.470036E+06       81.0277863      344.828E+06      -115.664467
              867   114.940656E+06    -57.47348E+06   -57.473416E+06       216.545181   344.828512E+06      -24.6667118
              868   114.941424E+06   -57.465804E+06   -57.464324E+06  -1.21151917E+03   344.824064E+06  -1.39367883E+03
              869   114.941456E+06   -57.472652E+06   -57.472384E+06       299.959259   344.828256E+06      -230.414841
              870   114.944408E+06   -57.468008E+06   -57.467096E+06       540.389893   344.827104E+06      -344.378082
              871   114.942624E+06    -57.47152E+06   -57.471488E+06       190.511688   344.827968E+06      -140.668243
              872    114.93988E+06   -57.472696E+06    -57.47294E+06      -629.348206   344.827456E+06      -9.69280529
              873   114.942736E+06   -57.471044E+06   -57.470868E+06      -43.3059349   344.827744E+06       47.1307755
              874    114.94096E+06   -57.472864E+06   -57.472728E+06       128.092209   344.828384E+06      -187.412979
              875    114.94224E+06   -57.472076E+06   -57.471608E+06       322.884369      344.828E+06       223.728714
              876   114.943216E+06   -57.470716E+06   -57.470328E+06       106.571609   344.827904E+06       194.740097
              877   114.941024E+06    -57.47226E+06   -57.472984E+06       146.163971   344.827712E+06      -687.138611
              878   114.978848E+06   -57.442392E+06   -57.442708E+06  -2.13257275E+03   344.827168E+06       96.3150711
              879   114.940872E+06    -57.47308E+06   -57.473248E+06       19.5841751   344.828288E+06      -241.477249
              880   114.942624E+06    -57.47154E+06   -57.471652E+06       47.3359032   344.827904E+06       26.5079117
              881   114.943128E+06   -57.470764E+06   -57.470884E+06      -26.7428417   344.827904E+06       3.82826066
              882    114.94184E+06   -57.471844E+06    -57.47176E+06       109.918968   344.828128E+06      -45.1223984
              883   114.941328E+06   -57.472544E+06   -57.472692E+06      -73.8844223   344.828032E+06      -267.208862
              884   114.946352E+06     -57.4685E+06   -57.469924E+06   1.02596301E+03   344.828128E+06       366.634583
              885   114.945496E+06   -57.469492E+06   -57.469996E+06   1.14343286E+03   344.828032E+06      -661.052124
              886   114.950288E+06   -57.465704E+06   -57.465076E+06       998.657776   344.829376E+06   2.87569287E+03
              887   114.944568E+06    -57.47106E+06   -57.472076E+06       418.948181   344.828288E+06       533.422363
              888    114.94132E+06   -57.472356E+06   -57.472828E+06       75.6338196      344.828E+06      -104.166122
              889    114.94504E+06   -57.471832E+06   -57.471744E+06      -212.025452   344.828992E+06      -451.961151
              890   114.945512E+06   -57.469188E+06   -57.470764E+06       56.8644066      344.828E+06       26.8489017
              891   114.941632E+06   -57.472344E+06   -57.472548E+06      -636.478394   344.827552E+06      -236.540436
              892    114.94492E+06    -57.46868E+06   -57.469208E+06      -557.084229   344.827328E+06      -44.4365578
              893   114.943328E+06   -57.470692E+06   -57.470704E+06       23.4304600      344.828E+06       94.3226624
              894   114.940872E+06   -57.471748E+06   -57.472312E+06      -430.761627   344.827136E+06      -108.045158
              895   114.942952E+06   -57.470672E+06   -57.470764E+06      -281.037811    344.82784E+06      -315.836792
              896   114.945312E+06   -57.467788E+06   -57.467728E+06      -454.078644   344.827712E+06       630.195801
              897    114.94172E+06   -57.470568E+06    -57.47104E+06      -704.350342    344.82704E+06       250.721542
              898   114.946416E+06   -57.470524E+06   -57.471152E+06       208.454590   344.827776E+06      -819.386597
              899    114.94384E+06   -57.470224E+06   -57.469312E+06      -357.095306   344.828448E+06      -118.288155
              900   114.941136E+06   -57.473584E+06   -57.475428E+06   1.61458252E+03   344.828928E+06      -576.071838
              901    114.94392E+06   -57.472232E+06   -57.469152E+06       801.338623      344.828E+06       109.544914
              902    114.94256E+06   -57.471816E+06     -57.4719E+06      -335.894257   344.827872E+06      -604.718384
              903   114.941288E+06   -57.472916E+06   -57.473424E+06      -422.506073   344.828256E+06      -119.626694
              904   114.941416E+06   -57.473008E+06   -57.473148E+06      -110.829300   344.828512E+06      -7.44665241
              905    114.94156E+06   -57.472492E+06   -57.472384E+06  -1.08732458E+03   344.828928E+06      -485.822479
              906     114.9434E+06   -57.471448E+06   -57.471348E+06       36.5408287   344.828768E+06      -116.742340
              907   114.940408E+06   -57.473288E+06    -57.47358E+06       363.429993   344.828384E+06      -8.91765118
              908    114.93828E+06   -57.475288E+06   -57.475328E+06       130.833588   344.828928E+06       179.154434
              909   114.949568E+06   -57.464212E+06   -57.464548E+06       38.2314568   344.826048E+06       224.286423
              910     114.9424E+06    -57.47066E+06    -57.47054E+06      -22.9483471   344.828224E+06       159.487076
              911   114.936376E+06   -57.478276E+06    -57.48054E+06       130.523697   344.828192E+06       376.661713
              912   114.944368E+06   -57.469372E+06   -57.470036E+06       48.5136032   344.827808E+06       141.570755
              913   114.951568E+06   -57.457648E+06   -57.457136E+06       581.195801   344.821472E+06       647.068787
              914   114.941088E+06   -57.472812E+06   -57.473152E+06       107.300552   344.828416E+06      -197.785156
              915   114.942408E+06   -57.472016E+06   -57.472256E+06      -209.679367      344.828E+06      -143.254944
              916   114.944104E+06   -57.470868E+06     -57.4711E+06      -222.229980   344.827712E+06       50.5298843
              917     114.9808E+06   -57.441192E+06   -57.441452E+06   1.39879138E+03   344.828992E+06      -497.619568
              918      114.955E+06   -57.458572E+06   -57.457832E+06      -134.397583   344.825888E+06  -1.23564771E+03
              919   114.964392E+06   -57.450708E+06   -57.454208E+06   3.95773047E+03    344.82576E+06       403.876434
              920   114.947184E+06   -57.464116E+06   -57.468608E+06      -418.253906   344.826464E+06      -927.033142
              921   114.945328E+06   -57.469112E+06   -57.468372E+06       25.6306591   344.828384E+06  -1.27288538E+03
              922   114.939976E+06   -57.475444E+06   -57.474292E+06       779.008240   344.828704E+06       68.6651611
              923   114.933856E+06   -57.482264E+06   -57.480412E+06      -555.209595   344.829696E+06       134.328995
              924    114.94248E+06     -57.4708E+06   -57.472748E+06      -904.223633   344.827936E+06      -901.827148
              925   114.943592E+06   -57.468408E+06   -57.471832E+06      -748.651123   344.827168E+06      -15.1823053
              926   114.945056E+06   -57.469088E+06    -57.46832E+06      -265.625916    344.82752E+06       63.0863953
              927   114.945568E+06   -57.467788E+06   -57.467628E+06      -805.352661   344.827168E+06      -880.912598
              928   114.943264E+06   -57.471136E+06   -57.471448E+06      -244.404587   344.827392E+06       298.563782
              929   114.946664E+06     -57.4694E+06     -57.4678E+06       534.198975   344.828544E+06       152.508255
              930    114.93772E+06     -57.4754E+06   -57.475228E+06      -599.208679    344.82864E+06  -1.11464771E+03
              931   114.943568E+06   -57.471208E+06   -57.471328E+06      -215.905258   344.828992E+06  -1.02062665E+03
              932   114.946824E+06   -57.466084E+06   -57.466472E+06  -1.50687744E+03   344.825056E+06  -1.93916040E+03
              933      114.938E+06   -57.476092E+06    -57.47792E+06      -340.041412   344.828416E+06      -193.740555
              934    114.94548E+06   -57.468532E+06   -57.468728E+06       104.043869    344.82784E+06      -2.89781880
              935   114.945064E+06   -57.469708E+06    -57.46922E+06       242.944626   344.828096E+06       573.299622
              936   114.932336E+06   -57.480728E+06   -57.481596E+06      -247.857086   344.829056E+06       813.533447
              937   114.944504E+06   -57.471676E+06   -57.469848E+06       313.805115    344.82784E+06      -338.365753
              938   114.942712E+06   -57.470556E+06   -57.470472E+06      -173.755310   344.827744E+06      -156.707275
              939   114.942488E+06   -57.471488E+06   -57.471064E+06      -54.0488358   344.827776E+06       83.1027222
              940   114.943784E+06   -57.470424E+06   -57.470396E+06      -85.3546600   344.827904E+06      -101.242882
              941   114.942968E+06   -57.471516E+06   -57.471852E+06       161.436737      344.828E+06       17.1421528
              942   114.945032E+06   -57.470824E+06    -57.47004E+06      -145.462921   344.828288E+06      -43.0546722
              943   114.942176E+06   -57.471052E+06   -57.471076E+06      -125.979355   344.827616E+06      -96.6517944
              944   114.942648E+06   -57.471064E+06   -57.471004E+06      -45.6236420   344.827712E+06       9.11023521
              945    114.94324E+06   -57.470304E+06   -57.470212E+06       54.9500961   344.827776E+06       95.3150330
              946   114.942544E+06    -57.47122E+06   -57.470924E+06       76.2509842    344.82784E+06       160.725327
              947   114.943168E+06   -57.470588E+06    -57.47044E+06       28.2105999    344.82784E+06       60.0061188
              948   114.942664E+06   -57.471112E+06   -57.471044E+06      -16.7562485   344.827712E+06      -26.0254269
              949   114.942664E+06   -57.471168E+06      -57.471E+06       21.4427757   344.827808E+06       144.527252
              950   114.942552E+06    -57.46976E+06   -57.470396E+06      -339.436707    344.82816E+06       599.537903
              951   114.945808E+06    -57.46728E+06   -57.467168E+06      -810.233643    344.82688E+06       289.666168
              952   114.943224E+06   -57.470308E+06    -57.47028E+06      -259.711853    344.82784E+06      -272.053589
              953   114.941976E+06   -57.471568E+06   -57.471296E+06       45.0349197      344.828E+06      -157.615067
              954    114.94292E+06   -57.471432E+06   -57.470592E+06       131.590012   344.828128E+06      -83.8962326
              955   114.942856E+06   -57.470848E+06   -57.470548E+06      -7.16421032   344.827776E+06       101.099594
              956   114.942224E+06   -57.471652E+06   -57.471836E+06      -34.3479843   344.827872E+06       1.75332344
              957   114.942784E+06   -57.471124E+06   -57.471204E+06      -142.110031   344.828064E+06       155.579117
              958   114.940192E+06   -57.474764E+06   -57.474916E+06      -178.180099   344.829728E+06       703.428833
              959    114.94324E+06   -57.470592E+06   -57.470588E+06       14.6459303    344.82784E+06       79.7103271
              960   114.942448E+06   -57.471352E+06   -57.471288E+06       22.3808041   344.827872E+06      -37.5888405
              961   114.942944E+06   -57.470792E+06   -57.470652E+06       36.2627220   344.827808E+06       13.2216787
              962     114.9434E+06   -57.470636E+06   -57.470524E+06      -109.844757   344.827968E+06      -137.319061
              963   114.942288E+06   -57.471792E+06   -57.471784E+06      -128.632156   344.827808E+06      -176.218719
              964   114.942664E+06   -57.471132E+06   -57.471528E+06      -131.251282   344.827744E+06      -179.448395
              965   114.942472E+06    -57.47248E+06   -57.472884E+06      -311.780487   344.827904E+06      -65.6814957
              966   114.942824E+06   -57.471424E+06   -57.471196E+06      -115.355789   344.828128E+06      -7.63165379
              967     114.9422E+06     -57.4717E+06   -57.471772E+06       78.3305588   344.827872E+06      -78.8792267
              968   114.943392E+06   -57.471784E+06   -57.471252E+06       67.9130020   344.828096E+06       185.150558
              969   114.943168E+06   -57.470624E+06   -57.470712E+06      -4.47585917      344.828E+06       238.212372
              970   114.943136E+06   -57.470728E+06   -57.470608E+06       99.7700424   344.828032E+06      -12.0282106
              971   114.943992E+06   -57.470136E+06   -57.470372E+06       85.8831635    344.82768E+06       123.039856
              972   114.940616E+06   -57.473784E+06   -57.473712E+06       448.737518      344.828E+06       192.179565
              973   114.942728E+06    -57.47164E+06   -57.471736E+06       130.021652   344.828032E+06       39.9595299
              974    114.94264E+06    -57.47134E+06   -57.471456E+06       34.9717751      344.828E+06       64.5068817
              975   114.944152E+06   -57.469804E+06   -57.470196E+06       103.789368    344.82752E+06       251.823868
              976   114.944088E+06   -57.469248E+06   -57.468728E+06      -159.851074    344.82736E+06       430.722137
              977   114.937984E+06   -57.473756E+06   -57.473916E+06      -595.641968   344.827776E+06   1.50486316E+03
              978    114.94028E+06   -57.472188E+06   -57.472996E+06       301.804352   344.827488E+06      -400.354187
              979   114.942984E+06   -57.471228E+06    -57.47126E+06      -170.136032   344.827808E+06      -163.942383
              980   114.944432E+06   -57.470032E+06    -57.46962E+06       239.095123    344.82816E+06       504.777496
              981   114.937296E+06   -57.475452E+06   -57.475348E+06      -186.493591   344.828672E+06       402.678345
              982   114.942304E+06   -57.471404E+06    -57.47128E+06  -137.027204E-03   344.827872E+06      -113.763191
              983   114.947496E+06   -57.466316E+06    -57.46616E+06       270.342377   344.827264E+06       426.419189
              984   114.939288E+06   -57.471244E+06   -57.471772E+06      -160.197906   344.828672E+06       645.167847
              985   114.940328E+06     -57.4737E+06   -57.474644E+06      -165.008026   344.828544E+06       339.754547
              986   114.939152E+06   -57.474152E+06   -57.474824E+06      -458.621826   344.828736E+06       557.558472
              987    114.94308E+06   -57.470356E+06   -57.470604E+06      -49.5354614   344.828128E+06       130.252121
              988   114.943512E+06    -57.46902E+06     -57.4703E+06      -997.847900   344.827776E+06       826.588867
              989    114.94568E+06   -57.466704E+06   -57.467588E+06      -873.792419   344.827744E+06   1.04831921E+03
              990    114.94204E+06   -57.471532E+06   -57.471168E+06      -26.5175762   344.828032E+06      -233.955917
              991    114.94292E+06   -57.471152E+06   -57.470912E+06       76.8103027      344.828E+06       89.9514313
              992   114.942736E+06   -57.471264E+06   -57.471076E+06       139.488770   344.828064E+06      -52.3212433
              993   114.942512E+06   -57.471792E+06    -57.47196E+06       17.6027088      344.828E+06       8.20255280
              994   114.943768E+06   -57.470432E+06     -57.4705E+06       221.244431   344.828192E+06       160.313522
              995    114.96348E+06    -57.45376E+06   -57.454564E+06  -3.81758984E+03   344.824736E+06   1.03802686E+03
              996    114.94252E+06   -57.471128E+06   -57.471004E+06      -48.3504295   344.827744E+06      -27.7406750
              997   114.942704E+06   -57.470848E+06     -57.4712E+06      -58.6951103   344.827712E+06       22.4146080
              998      114.943E+06   -57.471312E+06   -57.471056E+06      -2.55154443    344.82832E+06      -142.965759
              999    114.94352E+06    -57.47068E+06    -57.47034E+06      -9.02436256   344.828032E+06      -203.813599
             1000   114.942608E+06   -57.471264E+06   -57.471332E+06       12.3946533    344.82832E+06       211.205460
             1001   114.942264E+06    -57.47192E+06   -57.471408E+06       104.323227   344.828256E+06      -80.3351440
             1002     114.9486E+06   -57.465716E+06   -57.465912E+06       163.223541    344.82688E+06      -83.5068283
             1003   114.942584E+06    -57.47148E+06   -57.471328E+06      -70.6581955      344.828E+06       171.432388
             1004   114.943656E+06   -57.470468E+06    -57.47028E+06       290.758759   344.827392E+06       93.5247803
             1005   114.944112E+06   -57.469984E+06   -57.470004E+06       53.2883034   344.827904E+06       88.6292572
             1006   114.945104E+06   -57.469356E+06   -57.468992E+06      -239.814453   344.827392E+06      -270.285431
             1007   114.943232E+06   -57.471468E+06   -57.471304E+06      -137.478195    344.82784E+06       45.2701378
             1008   114.869576E+06   -57.530156E+06   -57.528648E+06   5.50667480E+03   344.831584E+06   1.19412952E+03
             1009   114.944096E+06    -57.47044E+06    -57.46958E+06       83.2912445   344.828576E+06       237.573608
             1010   114.933808E+06    -57.47586E+06     -57.4758E+06      -684.824951   344.829152E+06  -1.27323230E+03
             1011    114.94612E+06   -57.468784E+06    -57.46652E+06       471.435913    344.82736E+06      -174.204147
             1012    114.94392E+06   -57.470192E+06    -57.46924E+06      -888.740234   344.827936E+06       872.608154
             1013   114.943136E+06   -57.470908E+06   -57.470204E+06       16.0301723   344.827904E+06      -119.797318
             1014   114.942848E+06    -57.47096E+06   -57.470764E+06      -241.292358   344.827808E+06      -102.981209
             1015   114.942264E+06    -57.47218E+06   -57.471892E+06       128.696381    344.82784E+06       207.764023
             1016     114.9434E+06   -57.470588E+06   -57.470452E+06      -127.980667   344.828064E+06       42.6254578
             1017   114.944616E+06    -57.46848E+06   -57.469328E+06       63.4366722   344.827744E+06       57.7769012
             1018   114.944136E+06   -57.470016E+06    -57.47024E+06      -335.894440   344.828064E+06      -108.740608
             1019    114.94268E+06   -57.471052E+06   -57.471064E+06      -87.9593430   344.827904E+06       78.1640930
             1020    114.94388E+06   -57.470284E+06   -57.470328E+06      -375.483490    344.82816E+06       49.4595795
             1021   114.942944E+06   -57.470792E+06   -57.470848E+06      -73.5650864   344.827808E+06       12.5381737
             1022    114.94188E+06   -57.471656E+06    -57.47166E+06      -275.855011   344.827968E+06      -36.9339981
             1023     114.9428E+06    -57.47162E+06   -57.471576E+06      -247.065369   344.828448E+06      -155.431534
             1024   114.943608E+06   -57.471056E+06    -57.47076E+06      -53.1512299   344.827936E+06       65.6418610
             1025   114.944152E+06   -57.470084E+06   -57.469844E+06      -39.9107552   344.828128E+06       49.5066986
             1026   114.944152E+06    -57.46986E+06    -57.46984E+06      -246.958252   344.827968E+06      -14.6631908
             1027    114.95888E+06   -57.454864E+06   -57.454804E+06  -2.52683984E+03   344.824064E+06       136.766678
             1028   114.941584E+06   -57.473432E+06   -57.471448E+06      -635.175476   344.829024E+06      -680.316528
             1029   114.942744E+06    -57.47134E+06   -57.470852E+06       24.4914246   344.828032E+06       35.8183098
             1030   114.942416E+06   -57.471264E+06    -57.47122E+06       40.2473259   344.827872E+06       223.802933
             1031   114.943504E+06   -57.470152E+06   -57.469796E+06       129.060852      344.828E+06       115.767227
             1032   114.943024E+06   -57.470792E+06   -57.470348E+06       165.114471   344.828032E+06       172.742645
             1033   114.943944E+06    -57.46996E+06   -57.469744E+06       5.95389605   344.827904E+06       122.786728
             1034   114.942768E+06     -57.4708E+06   -57.470876E+06      -7.10863209   344.827808E+06       23.6834278
             1035   114.942912E+06   -57.470748E+06   -57.471088E+06      -27.2404613   344.827744E+06      -43.6212234
             1036   114.943576E+06   -57.469416E+06   -57.469796E+06      -493.710632    344.82768E+06       31.1914482
             1037   114.940264E+06    -57.47328E+06   -57.473036E+06      -218.653152   344.828256E+06      -20.0552387
             1038   114.935888E+06   -57.478204E+06    -57.47622E+06   1.09362109E+03   344.830688E+06       283.315704
             1039   114.946944E+06    -57.46658E+06   -57.466624E+06   1.29937463E+03   344.828192E+06   1.08706665E+03
             1040   114.937096E+06   -57.476532E+06   -57.476372E+06      -806.017700    344.82848E+06      -123.995911
             1041   114.945592E+06   -57.469252E+06   -57.468996E+06       779.540649   344.829568E+06       565.140808
             1042    114.93988E+06   -57.474324E+06    -57.47398E+06  -1.04355774E+03   344.828128E+06      -70.0531082
             1043   114.946792E+06   -57.467164E+06   -57.466676E+06   1.55665198E+03   344.828704E+06   1.04202161E+03
             1044   114.936616E+06   -57.477792E+06   -57.476012E+06  -1.18631946E+03   344.831488E+06       600.668457
             1045   114.941808E+06   -57.473064E+06   -57.472444E+06  -2.02123755E+03   344.829824E+06       433.199768
             1046   114.940544E+06   -57.472764E+06    -57.47232E+06      -612.029846    344.82848E+06      -263.145111
             1047   114.943432E+06   -57.469756E+06   -57.468428E+06      -465.287476    344.82832E+06      -77.3458328
             1048   114.942584E+06    -57.47164E+06   -57.471732E+06      -655.878601    344.82688E+06      -706.620911
             1049   114.984696E+06    -57.43598E+06   -57.438096E+06  -4.31521777E+03   344.822336E+06       123.074287
             1050   114.945736E+06   -57.467944E+06   -57.467204E+06      -544.468506   344.828064E+06      -122.951393
             1051   114.936368E+06   -57.477856E+06   -57.476488E+06  -1.67434106E+03   344.828128E+06  -1.10094495E+03
             1052   114.942728E+06   -57.470992E+06   -57.470952E+06      -17.8391151   344.827712E+06       12.9554243
             1053   114.941544E+06    -57.47244E+06   -57.472916E+06      -35.7961884   344.828288E+06       202.000320
             1054   114.943056E+06   -57.470484E+06    -57.47004E+06       85.0667953   344.827904E+06       259.451263
             1055   114.939864E+06   -57.473868E+06   -57.474252E+06      -207.196548   344.828832E+06       292.582672
             1056   114.943944E+06   -57.470624E+06   -57.470384E+06      -132.385101   344.827712E+06      -221.616852
             1057   114.942792E+06   -57.471212E+06   -57.470944E+06       24.1013565   344.827936E+06       69.5634766
             1058   114.944288E+06   -57.469708E+06   -57.469428E+06       158.270309    344.82784E+06      -93.2197723
             1059   114.942808E+06   -57.471092E+06   -57.471356E+06       5.16393614   344.828096E+06       216.537659
             1060   114.942272E+06   -57.471684E+06      -57.472E+06      -17.2678413   344.828192E+06       246.094818
             1061   114.942152E+06   -57.471524E+06   -57.471292E+06      -92.3717270   344.827936E+06      -310.483612
             1062    114.94208E+06   -57.470656E+06   -57.471764E+06       742.072632   344.827424E+06       332.273956
             1063   114.937864E+06   -57.475772E+06    -57.47476E+06      -118.897446    344.82944E+06       58.9972839
             1064    114.94048E+06    -57.47234E+06   -57.472288E+06       240.780487   344.827072E+06      -71.9110184
             1065   114.947344E+06   -57.467044E+06   -57.466204E+06       264.997925   344.826752E+06       6.60324144
             1066   114.929648E+06    -57.48504E+06   -57.482996E+06   1.87645251E+03   344.830368E+06      -522.718018
             1067    114.94056E+06   -57.472932E+06   -57.472772E+06      -101.562920   344.828384E+06      -527.839905
             1068     114.9424E+06    -57.47144E+06   -57.471188E+06       71.1165848   344.827904E+06       143.679062
             1069   114.941488E+06      -57.472E+06    -57.47172E+06      -127.864342   344.827584E+06       76.2278061
             1070   114.942392E+06   -57.471264E+06   -57.470884E+06       27.7379608   344.827872E+06       143.736420
             1071   114.942176E+06   -57.471604E+06    -57.47108E+06       117.220390   344.828256E+06       111.715157
             1072   114.943408E+06   -57.470488E+06    -57.47006E+06       36.2580299   344.828096E+06       227.244492
             1073    114.94444E+06   -57.467492E+06   -57.468192E+06      -542.102234   344.826656E+06       690.147339
             1074   114.938656E+06   -57.475084E+06   -57.474412E+06       676.989807   344.828192E+06       312.875732
             1075   114.943976E+06   -57.469712E+06   -57.469656E+06       30.0184708   344.827936E+06       278.331787
             1076    114.94328E+06   -57.470756E+06   -57.470792E+06       151.569580   344.827872E+06      -2.37827277
             1077   114.942856E+06   -57.469392E+06   -57.470264E+06      -226.141617   344.828224E+06       525.855225
             1078      114.942E+06    -57.47118E+06    -57.47152E+06      -414.857910   344.828256E+06   1.50724377E+03
             1079    114.94172E+06   -57.471352E+06   -57.471016E+06       638.149902   344.827744E+06       27.0571442
             1080   114.943128E+06      -57.471E+06    -57.47054E+06      -8.31856441   344.827776E+06       91.5658417
             1081    114.93844E+06   -57.472304E+06    -57.47378E+06       32.9637260   344.827392E+06      -523.801392
             1082   114.943456E+06   -57.470132E+06     -57.4708E+06      -648.538879   344.827008E+06       49.5942039
             1083   114.942912E+06   -57.472084E+06    -57.47314E+06       575.972168   344.828384E+06       368.221649
             1084   114.940536E+06   -57.472444E+06    -57.47206E+06      -367.673431     344.8272E+06       181.592499
             1085   114.942792E+06   -57.471432E+06     -57.4714E+06      -62.0928116   344.827648E+06      -159.985657
             1086    114.94236E+06   -57.468764E+06   -57.473588E+06   1.94240381E+03     344.8288E+06       3.27013230
             1087   114.954416E+06   -57.464528E+06    -57.46182E+06       869.275818   344.830144E+06       862.627747
             1088     114.9326E+06   -57.482464E+06    -57.48256E+06  -1.35156323E+03   344.830496E+06      -547.428345
             1089   114.941224E+06   -57.472844E+06     -57.4727E+06      -256.580231   344.827936E+06      -33.5859985
             1090   114.948192E+06   -57.467128E+06   -57.466608E+06       87.5793076   344.827552E+06      -33.5570946
             1091   114.936176E+06   -57.475468E+06   -57.476152E+06  -1.56459070E+03   344.825952E+06       247.025528
             1092   114.943256E+06    -57.47108E+06   -57.470844E+06      -218.742340   344.827712E+06      -95.7511139
             1093   114.941592E+06     -57.4726E+06   -57.471828E+06       793.087036   344.827456E+06       545.089111
             1094   114.942416E+06   -57.471364E+06   -57.471508E+06       200.856613    344.82768E+06       74.1620407
             1095   114.942704E+06   -57.471248E+06   -57.470792E+06      -161.584015   344.828032E+06      -263.439667
             1096   114.943704E+06   -57.469476E+06   -57.469204E+06       204.412689   344.827488E+06      -234.541931
             1097   114.942912E+06   -57.469848E+06   -57.469812E+06      -182.972717    344.82784E+06      -367.351135
             1098   114.942672E+06    -57.47134E+06    -57.47108E+06       20.3126144   344.827968E+06       76.8996277
             1099   114.944112E+06   -57.469752E+06   -57.469616E+06      -142.586975   344.827488E+06      -3.27826309
             1100   114.945456E+06   -57.468676E+06   -57.470892E+06       377.045563   344.827744E+06       6.95777559
             1101   114.943784E+06   -57.470036E+06    -57.47008E+06      -187.050674   344.827424E+06      -32.2783890
             1102   114.943456E+06    -57.47132E+06   -57.471152E+06      -149.841827   344.827776E+06       21.6411533
             1103   114.939824E+06    -57.47566E+06   -57.477124E+06      -702.135193   344.827904E+06      -934.458008
             1104   114.942368E+06   -57.472184E+06   -57.473224E+06      -654.747986   344.828224E+06      -589.377197
             1105   114.929616E+06   -57.482624E+06   -57.483252E+06       212.729752   344.828576E+06      -427.140656
             1106   114.942552E+06   -57.469932E+06   -57.470396E+06      -307.434845   344.827392E+06      -655.809998
             1107   114.942368E+06   -57.473712E+06   -57.473836E+06       34.5550117   344.828896E+06      -908.544495
             1108   114.942816E+06    -57.47116E+06   -57.471256E+06       93.3022995    344.82784E+06      -9.56797409
             1109    114.94272E+06   -57.471184E+06   -57.471512E+06       113.337189      344.828E+06      -235.050766
             1110    114.94188E+06   -57.472336E+06   -57.472644E+06       65.2096710   344.828064E+06      -390.534363
             1111   114.945664E+06   -57.469308E+06   -57.468696E+06       237.396210   344.828768E+06       61.5142708
             1112   114.934448E+06   -57.478244E+06    -57.47658E+06   3.65795142E+03    344.82848E+06       598.393250
             1113    114.94172E+06   -57.464988E+06   -57.468424E+06   1.86753174E+03   344.826848E+06      -33.0866737
             1114   114.938728E+06   -57.475524E+06    -57.47594E+06   1.60691016E+03   344.828896E+06      -628.282593
             1115   114.887176E+06   -57.513448E+06   -57.515348E+06   4.84980566E+03   344.826624E+06       497.570801
             1116   114.945464E+06    -57.46778E+06   -57.468388E+06   3.13813647E+03    344.82864E+06       110.399864
             1117   114.957392E+06   -57.456164E+06    -57.45606E+06   2.98572363E+03   344.826784E+06       356.787933
             1118   114.950472E+06   -57.465452E+06   -57.466656E+06  -2.63827197E+03   344.827936E+06       280.956635
             1119     114.9388E+06   -57.472584E+06   -57.471932E+06       337.251160   344.827168E+06       137.908859
             1120   114.956064E+06     -57.4613E+06   -57.461332E+06   2.11867383E+03   344.831584E+06      -687.441833
             1121   114.942968E+06   -57.469944E+06   -57.470452E+06      -764.678650   344.827968E+06  -1.04784338E+03
             1122   114.917632E+06   -57.493176E+06    -57.49296E+06       495.645569    344.83344E+06      -662.980164
             1123   114.941056E+06     -57.4729E+06    -57.47296E+06  -1.06977271E+03   344.828128E+06      -459.701752
             1124   114.941704E+06   -57.471008E+06    -57.47108E+06      -274.547180    344.82832E+06       107.729889
             1125   114.955648E+06   -57.460592E+06   -57.459728E+06      -759.530762   344.825696E+06       305.235260
             1126   115.047816E+06   -57.381908E+06   -57.384448E+06   5.13866211E+03   344.815872E+06   1.04341479E+03
             1127   114.941288E+06   -57.473028E+06   -57.473332E+06      -152.563889    344.82832E+06       918.223083
             1128   114.939328E+06   -57.472752E+06   -57.471324E+06       840.752869    344.82976E+06      -896.002014
             1129   114.925888E+06   -57.485484E+06   -57.485348E+06       303.325684   344.828448E+06   1.21186414E+03
             1130   114.932696E+06   -57.479528E+06   -57.479304E+06      -438.884430   344.828544E+06       878.848511
             1131   114.941104E+06   -57.470988E+06   -57.470588E+06      -264.288574   344.825024E+06       855.707275
             1132   114.898592E+06    -57.50928E+06   -57.507956E+06  -5.23238965E+03   344.831904E+06       228.176270
             1133   114.942288E+06   -57.469656E+06   -57.470236E+06       61.9159927   344.827488E+06      -123.404976
             1134   114.943784E+06   -57.465252E+06   -57.465784E+06   1.39074744E+03   344.826688E+06      -58.8880768
             1135   114.942128E+06   -57.469016E+06   -57.469116E+06  -2.17785840E+03   344.828128E+06      -867.455322
             1136   114.942704E+06   -57.471248E+06   -57.470548E+06      -15.4098549   344.827616E+06      -35.1240578
             1137    114.94292E+06   -57.470988E+06   -57.470964E+06       37.6380081   344.827808E+06      -121.830803
             1138   114.943368E+06   -57.470748E+06   -57.470476E+06       213.687012   344.828192E+06      -133.790405
             1139   114.943856E+06   -57.470612E+06   -57.470924E+06      -883.797424      344.828E+06       60.7799606
             1140   114.942528E+06   -57.471452E+06   -57.471888E+06      -2.45792580   344.827648E+06      -78.4848175
             1141   114.942488E+06   -57.471524E+06     -57.4716E+06      -114.948425    344.82768E+06      -50.6925278
             1142   114.943328E+06   -57.470376E+06   -57.470472E+06       1.46154559   344.827744E+06      -456.577789
             1143   114.943352E+06   -57.470644E+06   -57.471004E+06       239.180328   344.827904E+06       4.77060080
             1144   114.943328E+06    -57.47064E+06   -57.471236E+06      -113.401756      344.828E+06      -208.056595
             1145   114.943808E+06   -57.470048E+06     -57.4702E+06      -5.65068436   344.827904E+06      -115.201561
             1146   114.942288E+06     -57.4692E+06   -57.469072E+06  -1.39130591E+03   344.826464E+06      -428.277435
             1147   114.941616E+06   -57.472092E+06   -57.472232E+06      -55.2144699   344.827776E+06      -183.981873
             1148   114.953144E+06   -57.461488E+06   -57.463672E+06   2.54526831E+03    344.82832E+06       713.881775
             1149    114.96836E+06   -57.452312E+06   -57.452628E+06  -5.04207910E+03    344.82816E+06      -471.713013
             1150   114.951272E+06   -57.466488E+06   -57.465584E+06       309.377228   344.829888E+06      -8.86628723
             1151   114.965376E+06   -57.455264E+06   -57.453708E+06  -1.04810913E+03   344.830592E+06       436.252197
             1152    114.93604E+06   -57.473156E+06    -57.47636E+06   2.38168506E+03   344.827712E+06       470.949188
             1153   114.941648E+06   -57.469556E+06    -57.46956E+06   1.07376697E+03   344.828736E+06   1.53419727E+03
             1154    114.94908E+06     -57.4657E+06    -57.46444E+06      -101.290047   344.828448E+06       663.909119
             1155   114.942392E+06   -57.470676E+06   -57.470508E+06       263.100464   344.827648E+06      -150.823029
             1156   114.942448E+06   -57.472504E+06   -57.472172E+06      -58.4681969   344.828352E+06       285.179840
             1157   114.940656E+06   -57.472728E+06   -57.472428E+06       917.900574   344.827392E+06       157.819046
             1158    114.94552E+06   -57.466376E+06   -57.466628E+06       -813.96875   344.826912E+06       596.171753
             1159   114.941936E+06   -57.471924E+06   -57.472036E+06       32.0021362   344.828064E+06      -26.7630024
             1160    114.94168E+06   -57.472568E+06   -57.472348E+06      -100.216393   344.827968E+06      -195.780930
             1161   114.941232E+06   -57.472688E+06   -57.472096E+06      -354.607117   344.827904E+06       695.726196
             1162   114.955128E+06   -57.458116E+06   -57.457292E+06      -544.879761    344.82832E+06       995.163818
             1163   114.936072E+06   -57.474476E+06   -57.473028E+06   1.94312244E+03     344.8264E+06      -53.9492569
             1164    114.96184E+06   -57.453904E+06   -57.452284E+06   5.95040430E+03   344.827168E+06      -816.175720
             1165   114.943864E+06   -57.471664E+06   -57.470972E+06      -230.519791   344.827904E+06      -111.437546
             1166   114.947096E+06   -57.467016E+06   -57.466184E+06       140.579453    344.82768E+06      -503.008301
             1167   114.947176E+06   -57.465188E+06   -57.465552E+06      -228.097427   344.828384E+06      -966.381714
             1168   114.946288E+06    -57.46806E+06   -57.467404E+06       145.251419   344.827776E+06      -616.671509
             1169   114.942696E+06   -57.471324E+06   -57.471676E+06      -323.199615   344.828064E+06      -85.7634506
             1170   114.942272E+06    -57.47128E+06   -57.471052E+06      -28.9527035    344.82768E+06      -77.7326279
             1171    114.94356E+06   -57.469812E+06   -57.469308E+06      -2.61103606   344.827392E+06      -35.3914948
             1172   114.944544E+06   -57.469748E+06   -57.469416E+06       253.730331    344.82736E+06       261.444550
             1173   114.942976E+06   -57.470652E+06    -57.47046E+06      -65.2752686    344.82752E+06      -201.499619
             1174   114.943328E+06    -57.47094E+06   -57.470852E+06       137.594238      344.828E+06       23.4682178
             1175   114.941552E+06   -57.472024E+06   -57.471488E+06       44.9200478   344.827712E+06      -56.0029068
             1176   114.942016E+06   -57.472604E+06    -57.47302E+06       5.94110298   344.828288E+06      -523.020752
             1177   114.939184E+06   -57.474636E+06    -57.47452E+06      -327.659485   344.828416E+06       141.063171
             1178    114.94252E+06   -57.471456E+06   -57.471304E+06      -37.5808945   344.827968E+06       10.0646124
             1179   114.946688E+06   -57.468256E+06   -57.466236E+06  -2.12009644E+03   344.829248E+06      -282.015289
             1180    114.94092E+06   -57.472956E+06    -57.47144E+06      -850.578003   344.828384E+06       139.584747
             1181   114.935464E+06     -57.4783E+06     -57.4792E+06   1.29883301E+03   344.827616E+06       828.756226
             1182   114.940464E+06   -57.473104E+06   -57.474084E+06   1.11372559E+03   344.827904E+06       881.418823
             1183   114.942016E+06   -57.472712E+06     -57.4712E+06   2.00922449E+03    344.82736E+06       590.970337
             1184   114.940272E+06    -57.47392E+06     -57.4736E+06       305.731964   344.828192E+06       102.063141
             1185   114.938864E+06   -57.476308E+06    -57.47426E+06       241.443924    344.82896E+06      -695.114197
             1186   114.943176E+06   -57.470496E+06     -57.4706E+06      -115.226585   344.827648E+06       15.5899353
             1187   114.943744E+06   -57.470088E+06   -57.470144E+06       107.061134   344.827872E+06      -112.111389
             1188   114.943896E+06   -57.469548E+06   -57.469424E+06      -41.0335426   344.827808E+06      -509.111023
             1189   114.942896E+06   -57.470688E+06    -57.47114E+06      -94.4423676   344.827424E+06      -185.008926
             1190   114.944512E+06   -57.469592E+06   -57.469764E+06       18.6308937    344.82816E+06      -151.117798
             1191   114.944072E+06   -57.469828E+06   -57.469812E+06      -153.126648   344.827456E+06      -56.5349464
             1192   114.943088E+06   -57.470752E+06     -57.4707E+06       110.481087   344.827552E+06      -59.2168655
             1193   114.942512E+06   -57.471552E+06    -57.47144E+06       18.4207478   344.828032E+06      -113.716743
             1194   114.942896E+06   -57.471752E+06    -57.47136E+06      -17.3088837   344.828352E+06       1.42501247
             1195    114.94364E+06   -57.470556E+06   -57.470812E+06       376.247284   344.827264E+06       326.001465
             1196   114.926864E+06    -57.48658E+06   -57.484072E+06       811.137512   344.827616E+06      -288.468781
             1197    114.92624E+06   -57.482856E+06   -57.483164E+06  -1.58307874E+03   344.826368E+06      -192.719101
             1198   114.942592E+06   -57.470608E+06   -57.471104E+06      -286.820923   344.827968E+06      -628.875793
             1199   114.954032E+06     -57.4607E+06     -57.4613E+06       56.8429909   344.826208E+06      -61.0156822
             1200   114.947568E+06    -57.46512E+06   -57.465764E+06      -562.263672   344.826496E+06      -743.244995
             1201   114.950856E+06   -57.463544E+06   -57.463732E+06       159.487778   344.825664E+06      -566.083191
             1202    114.92888E+06   -57.482456E+06   -57.483752E+06  -2.07283521E+03   344.827616E+06       286.086273
             1203   114.944952E+06   -57.469076E+06   -57.469136E+06      -218.458771   344.827328E+06      -68.5175095
             1204   114.946184E+06     -57.4672E+06   -57.467912E+06      -692.199707   344.827264E+06       491.618439
             1205    114.95084E+06   -57.464448E+06   -57.465428E+06      -388.752350    344.82688E+06       17.7761269
             1206    114.94388E+06   -57.470024E+06    -57.46988E+06      -10.8253050   344.827712E+06       23.2369099
             1207   114.943896E+06   -57.469988E+06    -57.46998E+06      -182.777008   344.827744E+06       107.012222
             1208    114.94124E+06   -57.471512E+06    -57.47184E+06      -99.9642334   344.827296E+06      -539.400696
             1209   114.942408E+06   -57.471264E+06    -57.47108E+06      -138.295532   344.827648E+06      -63.4989243
             1210   114.942664E+06    -57.47154E+06   -57.471584E+06      -103.934090    344.82768E+06      -147.678406
             1211   114.941544E+06    -57.47204E+06   -57.472136E+06       181.759689   344.828096E+06      -57.6232452
             1212   114.948888E+06   -57.456308E+06   -57.459592E+06  -4.47982373E+03   344.821376E+06      -871.049500
             1213   114.945072E+06    -57.46786E+06   -57.470088E+06       640.096863   344.828096E+06       85.0286407
             1214    114.94252E+06    -57.47168E+06     -57.4714E+06       11.9211121   344.827776E+06      -107.603859
             1215   114.942168E+06    -57.47174E+06   -57.471352E+06      -112.681068   344.827648E+06      -136.814606
             1216   114.942136E+06   -57.472384E+06   -57.472252E+06      -639.788391   344.827712E+06      -230.300293
             1217   114.943288E+06   -57.470664E+06   -57.470668E+06      -65.1369400   344.827712E+06       59.3717995
             1218   114.943216E+06   -57.471448E+06   -57.470896E+06      -215.278870   344.828096E+06      -371.917999
             1219   114.943152E+06     -57.4708E+06   -57.470764E+06      -164.445465   344.827488E+06      -79.8973083
             1220     114.9424E+06   -57.471476E+06    -57.47146E+06      -349.851318   344.827776E+06      -353.612274
             1221   114.942896E+06   -57.470792E+06   -57.470864E+06      -214.998062   344.827712E+06      -354.403870
             1222   114.942664E+06    -57.47112E+06   -57.471032E+06       13.2830896   344.827744E+06       8.91718578
             1223   114.944432E+06     -57.4701E+06   -57.470132E+06      -44.4635239   344.828288E+06      -136.797821
             1224   114.942944E+06   -57.471108E+06   -57.471096E+06      -89.7789764   344.827968E+06      -89.1662521
             1225   114.942408E+06   -57.471596E+06    -57.47166E+06      -136.060928   344.827904E+06      -141.083649
             1226   114.942888E+06   -57.470848E+06   -57.470736E+06       1.15733147   344.827744E+06      -23.2097454
             1227   114.942528E+06   -57.471296E+06   -57.470836E+06      -35.2623558   344.827936E+06      -83.9928970
             1228    114.94796E+06    -57.47214E+06    -57.47172E+06       136.632065   344.832096E+06      -145.325500
             1229   114.947296E+06   -57.466304E+06   -57.464952E+06      -409.985382    344.82784E+06      -80.7816620
             1230    114.94308E+06    -57.47082E+06   -57.472092E+06      -212.208374    344.82752E+06      -678.895996
             1231    114.95612E+06   -57.462544E+06   -57.460604E+06   1.78795618E+03   344.826272E+06       280.774384
             1232   114.953696E+06   -57.459788E+06   -57.458652E+06  -1.72410095E+03   344.826304E+06  -2.14194336E+03
             1233   114.943072E+06   -57.471024E+06     -57.4709E+06      -100.535538   344.827744E+06      -238.392609
             1234   114.940536E+06   -57.473352E+06   -57.472964E+06       297.968628   344.827936E+06       182.712585
             1235   114.936256E+06   -57.479796E+06   -57.479576E+06       777.704529   344.829568E+06       655.688354
             1236   114.947504E+06    -57.46502E+06   -57.466188E+06      -611.335083   344.827456E+06   1.13495825E+03
             1237    114.94616E+06   -57.468664E+06   -57.467428E+06       686.254639   344.827648E+06       44.4284248
             1238    114.94104E+06   -57.474992E+06   -57.475536E+06       310.621582   344.828224E+06       846.124023
             1239   114.944488E+06    -57.47126E+06   -57.470332E+06      -119.654846   344.828576E+06       55.5268593
             1240   114.942752E+06   -57.471148E+06   -57.470364E+06       102.406830   344.827744E+06       123.132202
             1241   114.942696E+06   -57.471012E+06   -57.470748E+06      -162.973816   344.827776E+06       23.4865685
             1242   114.941328E+06   -57.472248E+06   -57.472044E+06       207.237442   344.827648E+06       287.521393
             1243   114.958232E+06   -57.453472E+06   -57.454904E+06   1.36712781E+03    344.82656E+06   1.45361230E+03
             1244   114.952392E+06   -57.463608E+06   -57.462952E+06   2.03070935E+03   344.828608E+06       713.981995
             1245   114.940312E+06    -57.47464E+06   -57.473912E+06       950.652832   344.829024E+06      -248.806122
             1246   114.943584E+06    -57.46942E+06   -57.470288E+06  -1.11606958E+03   344.827424E+06       146.270950
             1247   114.928936E+06   -57.482648E+06   -57.482376E+06   1.97926135E+03    344.83008E+06   1.07110608E+03
             1248   114.957632E+06   -57.454256E+06   -57.454576E+06      -985.585815   344.822496E+06       54.6843224
             1249    114.94252E+06   -57.471692E+06   -57.471536E+06      -114.740707    344.82752E+06      -334.541168
             1250   114.942112E+06   -57.472332E+06   -57.472276E+06       306.151062   344.828608E+06       333.076202
             1251   114.943008E+06   -57.471036E+06   -57.470928E+06       440.913147   344.827424E+06       279.760712
             1252   114.938296E+06   -57.477016E+06   -57.478128E+06      -464.707367   344.828256E+06      -337.092957
             1253   114.943632E+06   -57.470312E+06   -57.470536E+06       36.0518684   344.828032E+06      -92.4892578
             1254    114.94588E+06   -57.467728E+06   -57.468212E+06      -722.638184    344.82736E+06      -222.726563
             1255   114.942072E+06    -57.47158E+06   -57.471484E+06      -101.607002   344.827776E+06      -274.210968
             1256   114.954688E+06   -57.458592E+06   -57.457124E+06   3.33218677E+03   344.826176E+06       899.072937
             1257   114.976136E+06    -57.44124E+06   -57.443056E+06  -3.35402734E+03   344.822624E+06       744.112610
             1258   114.938056E+06   -57.476616E+06    -57.47682E+06      -462.173584   344.828928E+06      -391.139343
             1259    114.94196E+06   -57.471944E+06   -57.471864E+06      -146.785568   344.827904E+06      -164.120346
             1260    114.94284E+06     -57.4709E+06   -57.470756E+06      -63.6907768   344.827648E+06      -5.68048048
             1261   114.961152E+06   -57.457384E+06   -57.458272E+06  -2.38015015E+03   344.827232E+06      -356.068298
             1262   114.945776E+06   -57.469116E+06    -57.46864E+06      -525.919800   344.827936E+06      -334.042084
             1263   114.945576E+06   -57.468664E+06   -57.468416E+06      -151.372482    344.82752E+06      -281.632751
             1264   114.943208E+06    -57.47072E+06   -57.470504E+06      -9.17952633   344.827712E+06       29.8278904
             1265   114.942992E+06    -57.47066E+06   -57.470672E+06      -79.9357605   344.827776E+06       25.1280212
             1266   114.942488E+06   -57.471232E+06   -57.470908E+06      -10.7695293    344.82768E+06       61.5298767
             1267    114.93968E+06   -57.473548E+06   -57.475448E+06       30.2523613   344.827488E+06      -333.796631
             1268   114.941416E+06   -57.473076E+06   -57.473016E+06      -460.867920    344.82768E+06      -330.484650
             1269   114.941016E+06   -57.473168E+06   -57.472696E+06       182.729767    344.82912E+06       520.103271
             1270   114.943136E+06   -57.470504E+06    -57.47142E+06  -1.05788989E+03    344.82704E+06       784.520508
             1271   114.951848E+06   -57.460464E+06    -57.46326E+06   1.64383875E+03   344.827008E+06       816.569885
             1272   114.949536E+06   -57.461656E+06   -57.463272E+06       461.356964   344.826368E+06      -638.952148
             1273   114.944536E+06   -57.468464E+06    -57.46904E+06       295.494141   344.827424E+06       272.290070
             1274   114.943664E+06   -57.469552E+06   -57.469896E+06       26.5253105   344.827456E+06       250.394119
             1275   114.944192E+06    -57.46702E+06   -57.469344E+06       410.737579   344.827168E+06       844.882813
             1276   114.941264E+06   -57.472752E+06   -57.472112E+06      -137.581085   344.828192E+06      -65.6268463
             1277   114.942984E+06     -57.4704E+06   -57.470288E+06       185.069138    344.82784E+06      -154.359558
             1278   114.944312E+06   -57.468612E+06   -57.468664E+06      -480.349365   344.827616E+06      -932.576660
             1279   114.953896E+06   -57.455604E+06    -57.45688E+06   1.51495276E+03   344.825024E+06       910.657532
             1280   114.920152E+06   -57.485796E+06   -57.485644E+06   4.16045508E+03    344.82752E+06       769.074463
             1281    114.94672E+06   -57.467328E+06   -57.467432E+06      -191.310867   344.826528E+06       19.8872757
             1282   114.942232E+06    -57.47144E+06   -57.471276E+06      -18.3317719   344.827776E+06      -44.2943916
             1283   114.944816E+06   -57.470212E+06   -57.470032E+06  -1.92232581E+03   344.828352E+06  -1.62665051E+03
             1284   114.942744E+06    -57.47108E+06   -57.470588E+06      -482.528748    344.82848E+06      -189.115311
             1285   114.945736E+06   -57.467912E+06   -57.468436E+06      -813.858093    344.82848E+06      -952.610779
             1286   114.940208E+06    -57.47574E+06     -57.4755E+06       224.689972    344.82848E+06   1.30518274E+03
             1287    114.95212E+06   -57.461432E+06   -57.460224E+06  -1.61536890E+03   344.826496E+06  -2.20747510E+03
             1288   114.942112E+06   -57.471632E+06   -57.471588E+06      -47.5693893      344.828E+06       145.803253
             1289   114.964264E+06    -57.45362E+06   -57.455288E+06   1.36788147E+03   344.823776E+06       680.884155
             1290   114.948544E+06   -57.469444E+06    -57.46688E+06  -1.10143958E+03   344.828192E+06       725.352295
             1291   114.949344E+06   -57.466036E+06    -57.46744E+06      -317.703827   344.829632E+06   1.42243762E+03
             1292   114.946528E+06   -57.469896E+06   -57.470872E+06       715.026306   344.829216E+06      -75.3991776
             1293   114.939472E+06   -57.474172E+06   -57.475528E+06      -230.981049    344.82784E+06       495.202637
             1294      114.943E+06   -57.473136E+06     -57.4706E+06       471.733795    344.82896E+06       96.9059067
             1295     114.9426E+06   -57.471888E+06    -57.47128E+06       159.121475   344.827904E+06       149.551361
             1296   114.942416E+06   -57.471332E+06   -57.471044E+06      -144.808731   344.827872E+06  -208.025903E-03
             1297   114.943528E+06   -57.470616E+06   -57.470184E+06      -328.052124   344.828128E+06      -225.769119
             1298   114.938088E+06   -57.478468E+06   -57.477644E+06      -200.118683   344.828736E+06   1.01621411E+03
             1299   114.942288E+06    -57.47204E+06   -57.470704E+06      -109.043823    344.82768E+06       521.974548
             1300   114.945872E+06    -57.46756E+06   -57.467624E+06       541.358459      344.828E+06       238.519257
             1301   114.941664E+06   -57.472072E+06   -57.471952E+06      -62.3402100   344.828224E+06      -8.00196648
             1302   114.941656E+06   -57.472328E+06     -57.4727E+06      -303.465149   344.827296E+06       130.760300
             1303    114.95916E+06   -57.454604E+06   -57.455984E+06   4.24630322E+03   344.825472E+06      -45.7545166
             1304   114.957352E+06   -57.457688E+06   -57.456936E+06  -1.57869165E+03   344.823712E+06      -809.741028
             1305   114.942008E+06   -57.471848E+06   -57.471668E+06      -85.1374207   344.827904E+06       112.322121
             1306   114.944968E+06   -57.468212E+06   -57.468512E+06      -627.522278   344.826976E+06      -788.477417
             1307    114.94256E+06   -57.470828E+06   -57.471076E+06      -342.376526   344.827584E+06      -79.7584381
             1308   114.943976E+06   -57.470344E+06   -57.470068E+06       369.299225   344.826944E+06       48.6327515
             1309   114.947664E+06    -57.46738E+06   -57.466752E+06       46.0196800    344.82832E+06  -1.31278552E+03
             1310   114.951504E+06   -57.466084E+06   -57.465304E+06  -1.11699023E+03   344.828736E+06      -823.992859
             1311    114.94216E+06     -57.4722E+06    -57.47268E+06  -1.02987268E+03   344.827136E+06      -117.781563
             1312   114.947136E+06   -57.467176E+06   -57.467936E+06       900.489014   344.828192E+06      -91.2670364
             1313   114.942272E+06    -57.47132E+06      -57.471E+06       65.0696030   344.828128E+06       241.345245
             1314   114.943312E+06   -57.470788E+06   -57.470876E+06      -304.595459   344.827776E+06       61.8746567
             1315   114.944456E+06    -57.46928E+06    -57.46918E+06       5.99571323    344.82752E+06      -380.684204
             1316    114.94316E+06   -57.470448E+06    -57.47018E+06      -162.833923   344.827552E+06      -82.0593033
             1317   114.944592E+06    -57.47098E+06    -57.47036E+06      -867.562073   344.828256E+06  -1.10701587E+03
             1318   114.942816E+06   -57.471372E+06   -57.471792E+06       99.8546524   344.827936E+06       209.541061
             1319   114.944392E+06   -57.469804E+06   -57.469824E+06      -219.170700    344.82736E+06      -94.0567856
             1320   114.944624E+06   -57.470016E+06   -57.469692E+06       354.146942    344.82736E+06      -298.652832
             1321   114.938184E+06   -57.476276E+06   -57.476548E+06      -382.394348   344.827072E+06      -997.600525
             1322   114.944336E+06   -57.471604E+06   -57.471984E+06       334.648193    344.82784E+06      -383.243591
             1323   114.941848E+06   -57.472308E+06   -57.471992E+06       331.284485      344.828E+06      -1.72559452
             1324   114.943496E+06   -57.471064E+06   -57.471156E+06       51.8358917    344.82816E+06      -33.8292732
             1325   114.941744E+06   -57.471804E+06   -57.472072E+06      -98.8471146   344.827712E+06      -305.078125
             1326   114.942208E+06     -57.4718E+06   -57.471696E+06      -211.582809   344.828096E+06      -93.8357773
             1327    114.94308E+06    -57.47072E+06   -57.470316E+06       33.9116783   344.827872E+06      -88.0193176
             1328    114.94364E+06    -57.46996E+06   -57.469808E+06       97.1494217    344.82784E+06      -206.816666
             1329    114.94308E+06   -57.471368E+06   -57.470904E+06       651.358093   344.827648E+06      -364.763611
             1330   114.944872E+06   -57.468656E+06   -57.469212E+06      -683.683533   344.827456E+06      -154.330139
             1331   114.943232E+06   -57.471156E+06   -57.471528E+06      -173.796570   344.827584E+06      -265.953339
             1332   114.941152E+06   -57.472848E+06   -57.472532E+06      -48.8314285   344.827936E+06      -403.446167
             1333   114.941552E+06   -57.471348E+06   -57.472408E+06      -204.733032   344.827232E+06      -117.914764
             1334   114.943128E+06   -57.471504E+06   -57.471092E+06       67.8019104    344.82832E+06      -182.030212
             1335      114.935E+06   -57.480452E+06   -57.480688E+06      -645.877563   344.828416E+06      -24.9445000
             1336    114.94572E+06   -57.468868E+06   -57.469652E+06      -890.456970   344.827488E+06      -246.325592
             1337   114.938088E+06   -57.475612E+06   -57.474344E+06       424.867035   344.828288E+06       509.951385
             1338   114.944376E+06   -57.470888E+06   -57.471652E+06      -409.167755   344.827328E+06      -456.606140
             1339     114.9426E+06     -57.4713E+06   -57.471496E+06       30.5422363   344.827712E+06      -91.2934189
             1340   114.943936E+06   -57.470076E+06    -57.46998E+06      -121.539398   344.827616E+06      -29.8296776
             1341   114.942296E+06   -57.471744E+06   -57.471336E+06       51.9412689    344.82816E+06      -201.724258
             1342   114.943568E+06   -57.472436E+06    -57.47274E+06       468.215942   344.827968E+06      -950.184570
             1343   114.941464E+06   -57.472368E+06   -57.472716E+06       21.0055218    344.82784E+06      -153.555878
             1344   114.951048E+06   -57.464068E+06    -57.46488E+06  -1.01365692E+03   344.827232E+06      -209.511536
             1345    114.94036E+06    -57.47082E+06   -57.471476E+06      -666.076843   344.827904E+06       531.270081
             1346    114.94308E+06   -57.471772E+06   -57.472844E+06  -1.22363220E+03   344.828416E+06      -14.0574064
             1347   114.945312E+06   -57.471044E+06   -57.471624E+06   1.33516931E+03   344.827872E+06      -851.512695
             1348   114.942864E+06   -57.470988E+06   -57.470476E+06       152.621109   344.828192E+06      -21.9374619
             1349   114.946488E+06   -57.471136E+06   -57.471296E+06   1.55081738E+03   344.828544E+06      -315.273346
             1350   114.940728E+06   -57.475128E+06   -57.475908E+06  -1.33318689E+03   344.828672E+06      -423.427246
             1351   114.943152E+06   -57.471028E+06   -57.471412E+06       53.4519806   344.827552E+06      -112.831123
             1352   114.946688E+06    -57.46712E+06   -57.466472E+06      -427.383667   344.826496E+06       199.515442
             1353    114.94448E+06   -57.470032E+06   -57.469872E+06       147.654739   344.827712E+06      -6.99659157
             1354   114.937472E+06   -57.474108E+06   -57.474792E+06      -94.3544235   344.828544E+06   1.28683423E+03
             1355   114.962664E+06   -57.458772E+06    -57.45722E+06   2.38405493E+03   344.825792E+06      -304.590576
             1356   114.942744E+06   -57.470732E+06   -57.471708E+06      -450.400787   344.827296E+06       33.3555679
             1357   114.946968E+06   -57.467464E+06    -57.46692E+06      -647.127930    344.82736E+06       298.238251
             1358   114.943592E+06   -57.470228E+06   -57.469624E+06       6.81405020   344.827648E+06      -341.374756
             1359    114.94196E+06    -57.47188E+06   -57.471532E+06      -395.241882   344.828448E+06       314.078430
             1360    114.94492E+06   -57.467424E+06   -57.467232E+06      -958.745117   344.827168E+06      -297.815887
             1361    114.94064E+06   -57.472952E+06   -57.472736E+06      -241.221405   344.828288E+06      -78.6024246
             1362    114.94292E+06   -57.470908E+06   -57.471236E+06      -98.0981140   344.827936E+06       128.724136
             1363   114.940488E+06   -57.473188E+06   -57.473236E+06       1.83226740   344.827968E+06       374.156708
             1364   114.942344E+06   -57.471548E+06   -57.471884E+06       248.044403   344.827776E+06       223.224808
             1365   114.943944E+06   -57.470276E+06   -57.470632E+06      -160.188110    344.82784E+06      -4.37716150
             1366   114.942552E+06    -57.47094E+06   -57.470652E+06      -88.2359085   344.827936E+06       173.409439
             1367   114.942576E+06   -57.472464E+06   -57.471968E+06       55.7720985   344.827776E+06       242.202988
             1368    114.94424E+06   -57.470612E+06   -57.470568E+06       79.5322495   344.828224E+06       62.5888786
             1369   114.944528E+06   -57.469972E+06   -57.470124E+06       86.7093430    344.82816E+06       107.344231
             1370   114.942616E+06    -57.47102E+06   -57.470624E+06      -138.454651      344.828E+06       116.071564
             1371   114.941576E+06   -57.472148E+06   -57.472296E+06       219.962631   344.828448E+06       249.403778
             1372    114.94188E+06   -57.472088E+06   -57.472276E+06      -44.3953171   344.828064E+06       44.0877228
             1373   114.942928E+06   -57.471444E+06   -57.471468E+06       28.3318691   344.827968E+06       62.8536644
             1374   114.939808E+06   -57.474376E+06   -57.474464E+06      -105.654968   344.828512E+06      -336.847748
             1375   114.942808E+06    -57.47178E+06   -57.472012E+06       58.9042015      344.828E+06       112.633644
             1376   114.941224E+06   -57.465308E+06   -57.466004E+06      -590.951782    344.82608E+06      -114.183052
             1377   115.009624E+06   -57.418508E+06   -57.417908E+06      -201.511368   344.826208E+06       918.609497
             1378   114.948184E+06   -57.465232E+06   -57.467084E+06      -920.192444   344.826144E+06      -720.582153
             1379   114.941712E+06   -57.472692E+06   -57.472188E+06      -122.649490   344.827712E+06       289.506104
             1380   114.954056E+06   -57.462776E+06   -57.461356E+06       821.683777   344.827456E+06   1.50836755E+03
             1381   114.933336E+06   -57.480932E+06   -57.484128E+06   1.47723962E+03   344.830528E+06       123.446648
             1382    114.93976E+06    -57.47376E+06   -57.473552E+06      -565.020386    344.82864E+06       229.199799
             1383   114.944312E+06   -57.470216E+06   -57.469804E+06       589.095947   344.827936E+06       292.008636
             1384   114.943432E+06   -57.470524E+06   -57.470272E+06      -59.8554726   344.827648E+06       98.3925171
             1385   114.942472E+06   -57.471612E+06   -57.471688E+06       282.553986   344.828096E+06       187.026932
             1386   114.943128E+06   -57.470952E+06    -57.47114E+06       91.1434097      344.828E+06       103.958839
             1387   114.946776E+06   -57.467364E+06   -57.467948E+06      -99.9248657   344.827392E+06       374.095032
             1388    114.93792E+06   -57.475668E+06   -57.475296E+06       751.649536   344.828512E+06       285.505676
             1389   114.945448E+06    -57.46862E+06   -57.469132E+06       45.0857620   344.827392E+06       435.050476
             1390   114.941416E+06   -57.472368E+06   -57.472592E+06       290.448181   344.828128E+06       172.549347
             1391    114.94308E+06   -57.470284E+06   -57.470764E+06       147.878052   344.827456E+06       354.965515
             1392    114.95212E+06    -57.46592E+06   -57.464752E+06  -3.49227710E+03   344.828256E+06  -1.32991125E+03
             1393   114.940032E+06   -57.474176E+06   -57.474536E+06      -268.849792   344.826912E+06      -521.500977
             1394   114.939088E+06   -57.475444E+06   -57.475936E+06      -545.949158   344.828768E+06       695.111328
             1395   114.952744E+06   -57.462904E+06   -57.461512E+06      -947.803711   344.824864E+06       564.996216
             1396    114.94192E+06   -57.475172E+06   -57.476204E+06   5.28594922E+03   344.832992E+06      -174.993332
             1397   114.939736E+06   -57.474072E+06   -57.474088E+06       295.228577   344.828736E+06       148.022552
             1398   114.942744E+06    -57.47112E+06   -57.470972E+06       106.588394   344.828032E+06       92.8183823
             1399   114.942808E+06   -57.471028E+06   -57.471356E+06       56.4735756      344.828E+06       81.0882034
             1400   114.943016E+06   -57.471004E+06   -57.470932E+06      -144.131943    344.82752E+06      -112.466576
             1401   114.943168E+06     -57.4704E+06    -57.47074E+06       42.1712379   344.827648E+06      -12.8225574
             1402   114.944464E+06   -57.469112E+06   -57.469088E+06       156.575668   344.827392E+06      -380.943390
             1403    114.94032E+06   -57.473636E+06   -57.473724E+06       313.594604   344.827968E+06      -38.0060234
             1404   114.941496E+06     -57.4729E+06   -57.472436E+06      -159.162857   344.828448E+06      -198.030273
             1405    114.94272E+06   -57.471496E+06   -57.471528E+06      -13.0365438   344.828064E+06      -147.928375
             1406    114.94292E+06   -57.471296E+06    -57.47132E+06      -323.053833    344.82816E+06       270.697601
             1407     114.9418E+06   -57.472204E+06   -57.472092E+06       109.980354    344.82816E+06      -134.578232
             1408   114.943312E+06   -57.470828E+06   -57.471048E+06      -106.433784      344.828E+06      -139.000336
             1409    114.94308E+06    -57.47114E+06   -57.470984E+06       11.2474585   344.827872E+06       154.708206
             1410   114.943704E+06   -57.470324E+06    -57.47056E+06       110.052193   344.827808E+06       89.1094666
             1411    114.94308E+06    -57.47098E+06   -57.471188E+06       9.31940174   344.827872E+06       51.8396454
             1412   114.943448E+06   -57.470376E+06     -57.4703E+06      -14.8489695    344.82784E+06      -47.8010445
             1413   114.942976E+06     -57.4709E+06   -57.470548E+06       50.5290909   344.827872E+06      -54.8820992
             1414    114.94388E+06   -57.469964E+06   -57.469684E+06       124.717545   344.827648E+06       162.386337
             1415   114.941064E+06   -57.472324E+06   -57.472036E+06       42.3308258   344.827808E+06       148.484360
             1416   114.941712E+06   -57.470928E+06   -57.471816E+06       248.897614   344.827264E+06       550.362610
             1417   114.950248E+06   -57.467208E+06   -57.466568E+06      -478.676208   344.828512E+06      -498.887665
             1418    114.94108E+06    -57.47254E+06   -57.472356E+06      -51.0319901   344.828128E+06       58.9444351
             1419   114.943416E+06   -57.474308E+06    -57.47434E+06      -40.8066635    344.82944E+06       19.7136650
             1420   114.942296E+06   -57.471672E+06   -57.471356E+06       121.198090   344.827968E+06      -45.5589409
             1421   114.941056E+06   -57.473204E+06   -57.472192E+06      -178.163879   344.828416E+06       87.0202560
             1422   114.953128E+06   -57.459944E+06   -57.459488E+06      -925.890198   344.825632E+06  -1.52211487E+03
             1423   114.947416E+06   -57.467648E+06    -57.46748E+06   1.70436169E+03   344.828192E+06       386.229187
             1424      114.934E+06   -57.479516E+06   -57.478804E+06  -2.20677002E+03    344.83024E+06       443.249573
             1425    114.95228E+06   -57.466928E+06   -57.467484E+06  -2.53547852E+03   344.830336E+06      -62.0044212
             1426   114.946024E+06   -57.468156E+06    -57.46818E+06       650.273804   344.827584E+06      -183.297714
             1427   114.982944E+06   -57.441724E+06   -57.443496E+06  -3.94924365E+03   344.828544E+06      -252.704865
             1428     114.9468E+06    -57.46698E+06      -57.467E+06  -1.08057068E+03   344.828928E+06  -1.35518420E+03
             1429    114.94364E+06   -57.471812E+06   -57.469452E+06  -1.16454883E+03   344.829536E+06       255.682144
             1430   114.939008E+06   -57.475756E+06   -57.475472E+06      -166.028961   344.827776E+06      -614.272461
             1431   114.942312E+06    -57.47396E+06   -57.471004E+06  -1.10216980E+03   344.829568E+06      -45.5886955
             1432    114.95084E+06   -57.463776E+06   -57.463848E+06       487.060303    344.82576E+06      -148.062607
             1433   114.943416E+06   -57.470436E+06    -57.47006E+06       170.214310    344.82704E+06      -84.8862076
             1434   114.941352E+06   -57.472496E+06   -57.472572E+06       287.782867   344.828576E+06       85.0120392
             1435   114.946576E+06   -57.467972E+06     -57.4679E+06      -791.741272    344.82912E+06      -297.949310
             1436   114.940728E+06   -57.473252E+06    -57.47308E+06       422.885468   344.828128E+06       183.377228
             1437   114.942984E+06      -57.471E+06   -57.471096E+06       46.0739670   344.828192E+06      -6.95593643
             1438   114.925144E+06   -57.482308E+06   -57.483952E+06      -238.970627   344.827488E+06      -122.528793
             1439   114.943992E+06   -57.468312E+06   -57.468836E+06       110.109825   344.826176E+06       147.262970
             1440   114.935048E+06     -57.4752E+06    -57.47602E+06      -312.351715   344.825824E+06       117.451813
             1441   114.943736E+06   -57.471904E+06   -57.472992E+06      -458.244385   344.827584E+06      -319.437256
             1442   114.943336E+06    -57.47036E+06   -57.470628E+06       9.74028397   344.827712E+06      -70.5947647
             1443   114.945408E+06   -57.468908E+06   -57.468704E+06  -1.16601514E+03    344.82912E+06  -1.18005212E+03
             1444   114.940048E+06   -57.473176E+06   -57.473448E+06       902.263306   344.827072E+06       71.1929398
             1445   114.939896E+06   -57.474872E+06   -57.476488E+06       44.3723297   344.828864E+06      -260.949738
             1446    114.94856E+06   -57.467216E+06   -57.467564E+06      -704.925049   344.827584E+06       41.6561317
             1447   114.933816E+06   -57.475732E+06   -57.476976E+06      -515.415100    344.82656E+06      -86.7419052
             1448    114.99864E+06    -57.42756E+06   -57.426604E+06  -2.91762109E+03   344.822944E+06       255.660736
             1449   114.940048E+06   -57.470632E+06   -57.472216E+06  -1.72803992E+03   344.826272E+06  -1.05067773E+03
             1450   114.943664E+06   -57.470044E+06   -57.469992E+06      -157.686737    344.82768E+06       16.6533241
             1451   114.941936E+06   -57.471784E+06   -57.471788E+06       19.6054764    344.82784E+06       24.3026028
             1452   114.942512E+06   -57.471208E+06   -57.471084E+06       35.7060165    344.82768E+06       44.9114037
             1453   114.943096E+06   -57.470932E+06   -57.471028E+06       58.9578514   344.827904E+06       77.6911774
             1454      114.943E+06   -57.471568E+06   -57.471844E+06      -54.1172638   344.828096E+06      -128.110382
             1455   114.941008E+06   -57.472956E+06   -57.473044E+06       126.863922    344.82848E+06      -164.342407
             1456   114.942656E+06   -57.471176E+06   -57.471388E+06      -26.8904305   344.828096E+06      -84.8644257
             1457   114.943272E+06   -57.470996E+06   -57.471408E+06      -79.5994797   344.828224E+06      -42.7480736
             1458   114.942104E+06   -57.472032E+06    -57.47188E+06       514.891357      344.828E+06       174.908508
             1459   114.942232E+06   -57.471776E+06   -57.471784E+06      -225.168472   344.827904E+06      -243.890991
             1460   114.944824E+06   -57.469352E+06    -57.46822E+06      -580.717285   344.827136E+06       509.169403
             1461   114.944688E+06   -57.468768E+06   -57.469256E+06      -333.286011   344.827072E+06      -127.769447
             1462   114.941416E+06   -57.472132E+06   -57.471656E+06      -227.973175      344.828E+06       49.5768394
             1463   114.943512E+06   -57.470084E+06   -57.469748E+06       37.0815849   344.827456E+06       137.748596
             1464   114.944928E+06   -57.467564E+06   -57.470744E+06       450.897400   344.828064E+06      -250.481171
             1465   114.941272E+06   -57.474036E+06   -57.474672E+06      -483.083160   344.828384E+06      -73.5836945
             1466   114.942504E+06   -57.471208E+06    -57.47072E+06       99.2650070   344.828192E+06  -191.881284E-03
             1467   114.938856E+06    -57.47706E+06   -57.475964E+06       821.293457   344.828192E+06      -544.700928
             1468   114.942368E+06   -57.471116E+06   -57.472608E+06       334.557068   344.828032E+06      -196.352753
             1469   114.939784E+06   -57.476212E+06   -57.475432E+06      -201.663086   344.828256E+06      -215.830414
             1470    114.94916E+06   -57.466636E+06   -57.466704E+06       389.734863   344.826592E+06  -1.41814001E+03
             1471   114.950728E+06   -57.465576E+06   -57.464988E+06       640.446960   344.827264E+06  -1.41347461E+03
             1472   114.942112E+06   -57.472044E+06    -57.47178E+06       306.657196   344.828192E+06      -74.8931580
             1473   114.943728E+06   -57.470524E+06   -57.470652E+06       39.9848633   344.827872E+06       178.248123
             1474   114.941136E+06   -57.472648E+06   -57.472788E+06       223.353104   344.828544E+06       132.033524
             1475   114.941696E+06   -57.472532E+06   -57.472388E+06       60.0666313   344.828256E+06       75.1040421
             1476   114.945392E+06   -57.469164E+06    -57.46912E+06       400.258148    344.82816E+06       118.604050
             1477    114.97088E+06   -57.450708E+06    -57.45148E+06  -3.22689771E+03    344.83472E+06  -1.36742285E+03
             1478   114.948424E+06    -57.46686E+06   -57.467024E+06       655.172485   344.828544E+06       91.6146851
             1479   114.941856E+06   -57.471596E+06     -57.4715E+06       81.3776245   344.827168E+06       129.648087
             1480    114.93872E+06   -57.474688E+06   -57.474776E+06      -648.656982   344.828224E+06      -7.55836248
             1481     114.9392E+06   -57.472776E+06     -57.4739E+06      -276.884247   344.827424E+06       318.906952
             1482   114.948136E+06   -57.469984E+06   -57.467952E+06       38.9986763   344.829088E+06      -360.275818
             1483   114.932952E+06   -57.483568E+06   -57.479952E+06   1.57641138E+03    344.82752E+06       541.989624
             1484   115.007888E+06   -57.418572E+06   -57.419968E+06   3.92350781E+03      344.824E+06       548.005798
             1485   114.933896E+06   -57.471588E+06    -57.47142E+06      -20.6002369   344.824608E+06      -892.289490
             1486   114.944872E+06    -57.47142E+06   -57.470012E+06  -1.09976318E+03   344.828928E+06      -389.657013
             1487   114.911216E+06     -57.4966E+06   -57.498716E+06   2.47474097E+03   344.831424E+06  -1.04092969E+03
             1488   114.941664E+06   -57.472464E+06    -57.47232E+06       61.9453087   344.828256E+06       83.3441544
             1489    114.95432E+06   -57.464576E+06   -57.464244E+06      -475.523132   344.828192E+06      -453.533081
             1490   114.945168E+06   -57.470036E+06   -57.470088E+06       657.586060   344.828992E+06       218.476898
             1491   114.926616E+06   -57.486616E+06   -57.485572E+06   1.58768030E+03    344.82944E+06       668.640991
             1492   114.939944E+06   -57.474528E+06    -57.47558E+06   2.02848547E+03   344.828192E+06       399.144806
             1493   114.947384E+06    -57.46578E+06      -57.466E+06      -132.261734   344.826624E+06      -386.786285
             1494   114.942288E+06   -57.472012E+06   -57.470928E+06      -323.948608   344.827456E+06      -172.115845
             1495   114.943008E+06   -57.470668E+06   -57.470448E+06      -462.559021   344.827136E+06      -140.349243
             1496   114.945536E+06   -57.469164E+06   -57.468796E+06       9.82526493   344.827776E+06      -263.186768
             1497   114.952272E+06   -57.465716E+06   -57.466852E+06   1.48854272E+03   344.828704E+06       325.481415
             1498   114.941624E+06   -57.473132E+06   -57.472972E+06  -2.37697632E+03   344.827872E+06      -771.506653
             1499    114.94796E+06   -57.463832E+06   -57.465412E+06       990.533813   344.828288E+06   1.97860034E+03
             1500   114.943064E+06   -57.469436E+06    -57.47148E+06  -1.58224573E+03   344.828512E+06      -130.580933
             1501   114.943416E+06   -57.470676E+06   -57.470576E+06      -130.842514   344.828064E+06       9.53122044
             1502   114.943192E+06   -57.472272E+06   -57.471856E+06      -494.897095   344.827424E+06       491.377075
             1503   114.944112E+06   -57.466352E+06   -57.466284E+06  -2.01533240E+03   344.823616E+06      -20.4757805
             1504   114.985512E+06   -57.434308E+06   -57.436636E+06   6.21747217E+03   344.826144E+06   1.85053955E+03
             1505    114.94048E+06   -57.475388E+06    -57.47386E+06       886.115784   344.828192E+06       53.5411758
             1506   114.943664E+06   -57.469484E+06   -57.470304E+06      -44.7144966   344.827872E+06       124.346779
             1507   114.942128E+06   -57.471384E+06   -57.471128E+06      -281.486603   344.827872E+06      -18.2762661
             1508   114.940312E+06   -57.470496E+06   -57.471708E+06       797.454895   344.828736E+06      -53.3720360
             1509   114.938952E+06   -57.475512E+06   -57.475088E+06  -1.26661096E+03   344.828032E+06       601.847107
             1510   114.942744E+06   -57.470936E+06   -57.469736E+06       133.154907   344.828256E+06      -691.238525
             1511   114.940472E+06   -57.471204E+06    -57.47182E+06       79.9741440    344.82864E+06       115.563980
             1512   114.941512E+06   -57.472076E+06   -57.471172E+06       377.066864   344.828096E+06      -15.2956591
             1513     114.9454E+06     -57.4682E+06   -57.468044E+06       582.246765   344.827936E+06      -422.501221
             1514   114.948056E+06    -57.46476E+06   -57.464324E+06   1.14709534E+03   344.826176E+06       593.580994
             1515    114.94992E+06   -57.462696E+06   -57.465552E+06      -256.677551   344.828416E+06       820.738220
             1516   114.948048E+06   -57.464684E+06   -57.463644E+06  -3.92592847E+03   344.824288E+06      -404.514038
             1517   114.963872E+06   -57.448932E+06   -57.449708E+06  -4.86082275E+03    344.82336E+06       706.214844
             1518   114.944424E+06   -57.469012E+06    -57.46896E+06   2.83002612E+03   344.826624E+06       434.547760
             1519   114.941576E+06   -57.474664E+06   -57.472256E+06       699.094604   344.828256E+06      -378.679077
             1520    114.94116E+06   -57.472304E+06   -57.472424E+06      -201.845230   344.828032E+06       28.4731541
             1521   114.942768E+06   -57.471376E+06   -57.471012E+06      -52.9517250   344.828096E+06      -91.9473877
             1522   114.944224E+06   -57.469772E+06   -57.470312E+06      -88.4147110   344.827872E+06       222.764694
             1523   114.944208E+06    -57.46894E+06   -57.470872E+06   1.06613049E+03    344.82656E+06       838.130371
             1524   114.941536E+06   -57.471664E+06   -57.471236E+06       138.867035   344.828256E+06       174.640900
             1525   114.943296E+06   -57.470124E+06   -57.469784E+06      -44.2610893   344.827552E+06       49.2793846
             1526   114.943216E+06   -57.470992E+06   -57.471124E+06      -45.7707596   344.827936E+06       28.9548969
             1527   114.945192E+06   -57.468216E+06   -57.467204E+06      -223.972153   344.827616E+06       66.1827927
             1528   114.944128E+06    -57.46978E+06    -57.47016E+06       72.6158752   344.827392E+06      -28.5911007
             1529    114.94388E+06   -57.470208E+06   -57.470316E+06      -31.2164650   344.827488E+06       39.3317146
             1530   114.944456E+06   -57.469732E+06    -57.46956E+06       53.5025826   344.827584E+06      -268.585907
             1531    114.94424E+06   -57.470348E+06    -57.47096E+06       293.770416   344.827328E+06       231.896667
             1532   114.942448E+06   -57.471404E+06   -57.471376E+06       30.8651791   344.827808E+06      -36.9377785
             1533   114.942768E+06    -57.47132E+06   -57.471132E+06       13.1480694   344.827616E+06      -84.4246292
             1534   114.936832E+06   -57.476444E+06   -57.477212E+06      -334.375336   344.828992E+06       376.535797
             1535   114.939368E+06   -57.473824E+06   -57.474732E+06       142.728653   344.827296E+06       515.868347
             1536   114.941488E+06    -57.47188E+06   -57.471972E+06       88.3488770   344.827456E+06       173.869186
             1537   114.939456E+06   -57.475052E+06   -57.474244E+06      -610.099243    344.82848E+06      -211.672791
             1538    114.94352E+06   -57.470632E+06   -57.470484E+06      -102.740585   344.827936E+06      -88.6049805
             1539   114.941512E+06   -57.472296E+06   -57.471984E+06       224.444489    344.82816E+06      -51.6551361
             1540   114.942944E+06   -57.471732E+06   -57.472156E+06      -488.093048   344.828096E+06      -536.180847
             1541   114.943344E+06   -57.470392E+06   -57.470584E+06      -143.452423   344.827808E+06      -43.6049309
             1542    114.93092E+06   -57.475856E+06   -57.478752E+06   2.06259131E+03   344.828768E+06      -14.2470226
             1543   114.944816E+06      -57.469E+06   -57.468884E+06      -250.370865   344.827744E+06       209.259323
             1544   114.948768E+06   -57.464768E+06   -57.465448E+06       639.142151   344.827328E+06       369.381042
             1545    114.96132E+06   -57.459152E+06    -57.45826E+06      -370.832092    344.82896E+06   2.14015161E+03
             1546   114.938632E+06     -57.4769E+06   -57.477464E+06   3.44843530E+03   344.827968E+06       336.743256
             1547    114.95136E+06   -57.467452E+06   -57.467312E+06       976.797302   344.830144E+06      -636.545776
             1548      114.949E+06   -57.467976E+06    -57.46324E+06      -114.699402   344.830496E+06      -483.073639
             1549   114.955144E+06   -57.461376E+06    -57.45882E+06   1.04847864E+03   344.829344E+06      -644.415100
             1550   114.930848E+06   -57.478084E+06   -57.479112E+06       537.310913     344.8248E+06       465.046692
             1551   114.961464E+06   -57.457156E+06   -57.455356E+06  -1.07724731E+03   344.824928E+06      -714.177673
             1552   114.943016E+06   -57.470448E+06   -57.470116E+06       620.212402   344.828608E+06       658.056641
             1553    114.94428E+06    -57.47008E+06    -57.46902E+06       141.094360    344.82816E+06      -146.215103
             1554   114.944208E+06    -57.46888E+06   -57.470152E+06      -181.457626   344.827488E+06      -187.563400
             1555   114.939952E+06   -57.475216E+06   -57.474648E+06       128.278900    344.82816E+06      -474.507050
             1556   114.940336E+06   -57.473212E+06    -57.47338E+06      -181.117111   344.828064E+06      -7.30514956
             1557   114.937416E+06   -57.475612E+06   -57.475468E+06       834.802917   344.828608E+06       36.0143547
             1558   114.942928E+06   -57.470536E+06   -57.470432E+06      -227.923050    344.82752E+06      -358.126892
             1559   114.942312E+06   -57.470892E+06   -57.470932E+06       96.7732544   344.827968E+06      -84.5876999
             1560   114.941728E+06   -57.471928E+06   -57.472012E+06      -241.914185   344.828032E+06       156.468002
             1561   114.895224E+06     -57.5107E+06   -57.508744E+06      -126.024628   344.833728E+06       838.140503
             1562   114.933096E+06     -57.4808E+06   -57.482376E+06  -1.13524951E+03   344.830944E+06  -1.03282764E+03
             1563   114.962744E+06   -57.453064E+06   -57.450988E+06  -2.63661938E+03   344.826144E+06   1.17843860E+03
             1564   114.936808E+06    -57.47694E+06   -57.479584E+06      -38.4692917   344.829312E+06       508.043274
             1565   114.944032E+06   -57.470436E+06   -57.469928E+06       53.7451324   344.827808E+06      -39.1052208
             1566   114.940688E+06   -57.474376E+06   -57.473164E+06  -1.00000134E+03   344.829088E+06      -609.060364
             1567   114.909096E+06    -57.49788E+06   -57.497324E+06  -6.39517676E+03   344.829472E+06       602.069275
             1568   114.920936E+06   -57.487988E+06   -57.489288E+06  -1.83415503E+03   344.827744E+06      -449.171814
             1569   114.944504E+06   -57.469768E+06   -57.469672E+06       79.9083252    344.82768E+06   620.256126E-03
             1570   114.941128E+06   -57.472672E+06   -57.472404E+06       285.185974   344.828128E+06      -119.936211
             1571   114.942288E+06   -57.473884E+06   -57.474008E+06       383.012115   344.828704E+06       535.939514
             1572    114.93608E+06   -57.474592E+06   -57.475784E+06      -967.396240   344.826912E+06      -561.850403
             1573   114.945576E+06   -57.468896E+06   -57.468684E+06       659.492065   344.827936E+06      -16.5989799
             1574   114.942312E+06   -57.471876E+06   -57.472532E+06  -2.58033911E+03   344.828192E+06      -369.063904
             1575   114.939856E+06    -57.47408E+06   -57.473392E+06       63.5219345    344.82768E+06       181.530655
             1576   114.948152E+06   -57.466816E+06   -57.468136E+06       910.984741   344.827936E+06       133.736252
             1577   114.945968E+06   -57.469072E+06   -57.468756E+06       657.230713   344.828288E+06       206.080612
             1578    114.98532E+06   -57.442012E+06   -57.441252E+06  -5.30592871E+03   344.828992E+06  -1.06135864E+03
             1579   114.943336E+06   -57.471684E+06   -57.472332E+06  -1.05783997E+03   344.827648E+06      -839.529236
             1580   114.938568E+06   -57.474368E+06   -57.472976E+06   2.23587061E+03    344.82384E+06       467.607758
             1581   114.943608E+06    -57.47208E+06   -57.472452E+06       53.7980881    344.82736E+06      -783.238403
             1582    114.94136E+06   -57.472108E+06   -57.473324E+06  -1.53376672E+03   344.827232E+06      -521.048950
             1583   114.966992E+06   -57.450036E+06   -57.451972E+06      -555.231934   344.823872E+06       931.255737
             1584    114.93648E+06    -57.47922E+06   -57.480676E+06      -786.513489   344.828928E+06  -1.31308679E+03
             1585   114.949248E+06   -57.465412E+06   -57.465396E+06  -1.78722974E+03   344.827104E+06       270.793671
             1586   114.944816E+06   -57.469416E+06   -57.469488E+06      -87.0928650   344.828032E+06       73.7510071
             1587   114.960088E+06   -57.457236E+06    -57.45782E+06      -989.863037   344.826848E+06      -39.2544594
             1588   114.943544E+06   -57.470344E+06    -57.47042E+06      -86.7427368   344.827936E+06       82.1043396
             1589   114.932792E+06   -57.482044E+06   -57.481716E+06      -11.3836088   344.829248E+06       261.688507
             1590   114.945816E+06   -57.469448E+06   -57.468576E+06  -3.29404956E+03   344.831232E+06       815.586548
             1591   114.947984E+06   -57.467548E+06   -57.468196E+06      -759.732422   344.827872E+06      -110.101547
             1592    114.94992E+06   -57.463248E+06   -57.463868E+06       604.348022   344.828096E+06      -29.1837635
             1593    114.94112E+06   -57.471816E+06   -57.472296E+06       628.271118   344.827488E+06      -363.231323
             1594   114.942952E+06   -57.470488E+06    -57.47038E+06      -100.820168   344.827904E+06      -141.544708
             1595   114.941568E+06    -57.47014E+06   -57.471356E+06      -218.363007   344.827392E+06      -908.206787
             1596    114.94776E+06   -57.467264E+06   -57.467624E+06       809.587097   344.829248E+06      -304.520264
             1597    114.93756E+06   -57.472964E+06    -57.47436E+06  -1.03003430E+03    344.82624E+06      -166.497665
             1598    114.92284E+06   -57.487216E+06   -57.488216E+06       389.987976   344.828064E+06      -689.922180
             1599   114.939904E+06   -57.473344E+06   -57.473856E+06      -280.937714   344.827104E+06      -214.077026
             1600   114.935432E+06   -57.476808E+06   -57.478736E+06       506.982452   344.829504E+06       931.984985
             1601    114.94052E+06   -57.473216E+06   -57.473636E+06      -219.267059    344.82864E+06       319.190857
             1602    114.93348E+06   -57.481536E+06   -57.481284E+06   1.49415210E+03   344.830208E+06       677.803650
             1603     114.9488E+06    -57.46864E+06   -57.467888E+06      -325.370880   344.828672E+06      -545.027344
             1604   114.947464E+06   -57.467408E+06   -57.467792E+06      -226.002228      344.828E+06      -251.365936
             1605   114.961136E+06   -57.455192E+06   -57.454156E+06  -6.68680811E+03   344.827936E+06   1.06711755E+03
             1606   114.943256E+06   -57.470768E+06   -57.470864E+06       251.561813   344.827936E+06       114.523361
             1607   114.942768E+06   -57.467608E+06   -57.468324E+06       189.019821   344.825536E+06   1.90382336E+03
             1608    114.94984E+06   -57.464508E+06   -57.464824E+06       114.728653   344.827424E+06      -134.480606
             1609   114.943304E+06    -57.47102E+06   -57.471516E+06       209.087601   344.827904E+06      -275.798340
             1610   114.962496E+06   -57.456564E+06   -57.454444E+06      -293.494629   344.828544E+06      -401.971283
             1611   114.932328E+06   -57.480624E+06    -57.48576E+06      -944.336304   344.830304E+06       500.525116
             1612   114.944064E+06   -57.472316E+06   -57.472708E+06      -163.972519   344.829408E+06       96.3308563
             1613   114.986448E+06     -57.4304E+06   -57.431604E+06   1.09388538E+03   344.816544E+06   1.45328833E+03
             1614   114.942456E+06   -57.471472E+06    -57.47172E+06      -78.0790710   344.828096E+06       34.8166580
             1615   114.950104E+06   -57.466648E+06    -57.46656E+06   1.82361572E+03   344.829376E+06      -57.4673195
             1616   114.941896E+06   -57.472032E+06   -57.472336E+06      -155.240936   344.828384E+06      -95.7462997
             1617   114.942128E+06   -57.471304E+06     -57.4714E+06      -164.776474   344.827872E+06      -15.9742117
             1618   114.943816E+06   -57.470152E+06   -57.469904E+06      -260.705048   344.827936E+06      -131.615051
             1619   114.942896E+06   -57.470512E+06   -57.470828E+06       164.626999   344.827712E+06      -133.781891
             1620   114.941752E+06    -57.47206E+06   -57.472104E+06       121.947266   344.827936E+06       57.6546402
             1621   114.941344E+06     -57.4692E+06   -57.471504E+06   2.00768848E+03   344.825536E+06       393.131104
             1622   114.942744E+06   -57.471204E+06   -57.471112E+06       24.5952454   344.828064E+06      -187.311386
             1623   114.987288E+06   -57.443404E+06     -57.4397E+06      -318.455627   344.826848E+06      -418.656525
             1624   114.945176E+06   -57.469016E+06   -57.470676E+06  -1.46716541E+03   344.827936E+06       373.505249
             1625   114.944264E+06     -57.4651E+06   -57.465644E+06       973.333496   344.823712E+06      -683.138855
             1626    114.95088E+06    -57.45982E+06   -57.462352E+06      -483.444611   344.824032E+06  -1.39963635E+03
             1627     114.9266E+06   -57.489908E+06   -57.486248E+06  -6.31749951E+03   344.827456E+06       9.48243999
             1628    114.89772E+06   -57.507836E+06   -57.506436E+06   4.87276953E+03   344.830304E+06       315.804688
             1629   114.946648E+06    -57.46736E+06   -57.466764E+06      -28.1413727     344.8288E+06       601.768555
             1630   114.943232E+06    -57.47024E+06    -57.47034E+06       104.959442   344.827776E+06      -97.9471817
             1631    114.96912E+06   -57.446856E+06   -57.449096E+06   1.30959631E+03   344.825504E+06  -1.44556885E+03
             1632    114.94384E+06   -57.470316E+06   -57.470376E+06       54.7599258   344.828416E+06      -314.429718
             1633   114.942504E+06   -57.471852E+06   -57.472308E+06      -75.8086319    344.82832E+06      -465.491577
             1634   114.942432E+06   -57.471348E+06   -57.471848E+06      -19.8101692   344.828128E+06       301.376556
             1635   114.938128E+06   -57.475272E+06     -57.4757E+06      -191.206741   344.828032E+06      -355.089996
             1636     114.9402E+06   -57.467032E+06   -57.467956E+06   3.60934985E+03   344.820864E+06       395.833923
             1637   114.944032E+06    -57.47038E+06    -57.47054E+06       266.766632   344.828448E+06       340.295441
             1638    114.94092E+06   -57.473212E+06    -57.47342E+06      -97.9336929    344.82832E+06       158.460983
             1639   114.934872E+06   -57.476404E+06   -57.471508E+06  -1.85162610E+03   344.831936E+06       154.341263
             1640   114.941152E+06   -57.471696E+06   -57.473012E+06      -277.161255   344.827328E+06      -76.4317780
             1641   114.935208E+06   -57.476016E+06   -57.476124E+06  -1.02716174E+03   344.825536E+06      -505.035828
             1642   114.951168E+06   -57.462264E+06   -57.462768E+06  -1.73694666E+03   344.826176E+06      -722.926208
             1643   114.949384E+06   -57.462892E+06     -57.4636E+06   1.61437305E+03   344.824448E+06       590.894958
             1644   114.938856E+06    -57.47548E+06    -57.47454E+06   1.24947632E+03    344.82976E+06      -341.874054
             1645   114.948368E+06   -57.469408E+06   -57.469548E+06   1.12229993E+03   344.827232E+06       14.6376152
             1646   114.948288E+06   -57.469696E+06   -57.470176E+06       546.956238   344.828288E+06      -394.651215
             1647   114.948696E+06   -57.465132E+06   -57.463776E+06       999.043457   344.828096E+06       383.222595
             1648    114.94632E+06   -57.466036E+06   -57.465428E+06      -575.957336   344.827104E+06      -165.876083
             1649   114.968344E+06    -57.44822E+06    -57.44894E+06  -1.59060583E+03   344.821888E+06      -855.410217
             1650   114.942032E+06   -57.471972E+06     -57.4716E+06       372.651855   344.828288E+06      -1.26091635
             1651   115.024528E+06    -57.39956E+06   -57.401912E+06  -7.27847119E+03   344.820864E+06   1.06694678E+03
             1652   114.944136E+06   -57.470404E+06   -57.470504E+06       87.2666092    344.82816E+06      -215.142975
             1653    114.94216E+06   -57.471484E+06   -57.471376E+06      -210.104889   344.828192E+06      -52.8268509
             1654   114.943904E+06   -57.470064E+06   -57.470032E+06      -211.925873   344.828032E+06       303.610046
             1655   114.941992E+06   -57.471808E+06   -57.471452E+06       49.8319893   344.828288E+06       103.949158
             1656    114.94228E+06   -57.471572E+06   -57.471472E+06      -23.6457729   344.828032E+06      -177.838196
             1657   114.944216E+06   -57.469924E+06   -57.470076E+06  -1.50292444E+03   344.827904E+06      -251.201843
             1658   114.942088E+06   -57.472148E+06      -57.472E+06      -319.295685   344.828224E+06      -179.791901
             1659   114.941392E+06   -57.472148E+06   -57.472028E+06      -76.6013947    344.82816E+06      -16.4035454
             1660   114.943072E+06     -57.4711E+06   -57.470636E+06      -887.850342   344.827488E+06      -131.792068
             1661   114.945376E+06   -57.469684E+06   -57.471136E+06  -1.24163037E+03   344.827552E+06       81.6035385
             1662   114.948056E+06   -57.463256E+06   -57.466404E+06   3.34835400E+03     344.8264E+06       802.963562
             1663   114.949824E+06    -57.46362E+06   -57.466752E+06       834.750549   344.825856E+06      -395.907745
             1664   114.943704E+06   -57.470652E+06   -57.470628E+06      -141.055862   344.828096E+06      -162.516846
             1665   114.938264E+06   -57.474932E+06   -57.474376E+06       235.529541   344.829376E+06       302.232300
             1666   114.941784E+06   -57.472052E+06   -57.472568E+06   1.18061951E+03   344.828288E+06       654.155273
             1667   114.946872E+06     -57.4676E+06   -57.467136E+06       803.819153   344.828992E+06   1.20954712E+03
             1668   114.943192E+06   -57.470208E+06   -57.470352E+06       78.3396683   344.827744E+06      -131.416428
             1669   114.941816E+06   -57.471576E+06   -57.471256E+06       95.6058426   344.827328E+06       122.531731
             1670   114.941768E+06   -57.472084E+06   -57.471896E+06       96.9348679   344.828256E+06       834.748657
             1671   114.940856E+06    -57.47344E+06   -57.473136E+06      -5.33993387   344.828064E+06      -448.226013
             1672   114.943744E+06   -57.470004E+06   -57.469988E+06      -353.611816   344.827808E+06      -462.666290
             1673   114.941496E+06   -57.475856E+06   -57.475832E+06       814.428772   344.827936E+06      -484.425262
             1674   114.944184E+06   -57.469768E+06   -57.469852E+06      -314.260742   344.827968E+06       184.215027
             1675    114.93296E+06   -57.478636E+06   -57.476672E+06      -430.968872    344.83088E+06       830.478760
             1676   114.941624E+06   -57.472236E+06   -57.472232E+06       83.0640793      344.828E+06       97.6073227
             1677   114.945744E+06   -57.469028E+06    -57.47128E+06       824.046448   344.828448E+06      -191.451874
             1678   114.944432E+06   -57.469264E+06   -57.469024E+06      -160.611755     344.8272E+06       100.883415
             1679   114.941736E+06    -57.47262E+06   -57.472388E+06      -100.118439   344.828032E+06       108.918167
             1680   114.947912E+06   -57.466048E+06    -57.46652E+06      -249.541306   344.827648E+06       6.50767183
             1681   114.943568E+06    -57.47088E+06   -57.470784E+06       190.651962   344.827968E+06      -45.3312225
             1682   114.948136E+06    -57.46518E+06   -57.465216E+06   2.29704370E+03   344.824128E+06      -642.066650
             1683   114.943904E+06   -57.470596E+06   -57.470776E+06       135.523422   344.827936E+06       24.1709061
             1684   114.943296E+06   -57.470956E+06    -57.47106E+06      -224.573883   344.827648E+06      -233.328903
             1685    114.97064E+06   -57.449004E+06   -57.450076E+06   2.02448853E+03   344.825632E+06      -685.171631
             1686   114.942488E+06   -57.471652E+06   -57.473312E+06  -1.08299695E+03   344.829568E+06      -348.787994
             1687   114.940744E+06   -57.473572E+06    -57.47286E+06      -50.2186623   344.828128E+06      -69.5360947
             1688   114.943624E+06   -57.470136E+06   -57.469724E+06       34.7245598   344.828064E+06       200.671783
             1689   114.940216E+06   -57.472688E+06   -57.473104E+06       277.724243   344.828576E+06       903.070190
             1690   114.941616E+06   -57.471412E+06   -57.471832E+06      -68.0464249   344.827616E+06       68.7830811
             1691   114.940528E+06    -57.47294E+06   -57.472796E+06       126.049934   344.828384E+06      -83.5959396
             1692   114.943616E+06   -57.469964E+06   -57.470092E+06      -173.412109   344.827872E+06      -353.219940
             1693   114.940584E+06    -57.47248E+06     -57.4725E+06      -199.698944   344.827488E+06       44.7665253
             1694   114.941264E+06   -57.472168E+06   -57.471844E+06      -68.1313171   344.827808E+06       85.7734146
             1695   114.942496E+06   -57.471324E+06   -57.470928E+06       32.8029137    344.82832E+06      -221.446030
             1696    114.94432E+06   -57.469884E+06   -57.469644E+06      -44.7245522   344.827424E+06       126.077591
             1697   114.940744E+06   -57.470164E+06   -57.470008E+06       120.873779   344.828096E+06      -226.403809
             1698   114.944344E+06   -57.466968E+06    -57.47064E+06  -2.31609180E+03   344.825344E+06      -827.137634
             1699   114.944096E+06   -57.473888E+06   -57.473924E+06       275.669434   344.828736E+06  -1.34423914E+03
             1700    114.94948E+06    -57.46276E+06   -57.461784E+06   1.35996167E+03     344.8256E+06       166.009293
             1701   114.941072E+06   -57.476928E+06    -57.47774E+06      -895.167236   344.831392E+06      -696.015808
             1702   114.947392E+06    -57.46802E+06   -57.467888E+06      -501.803497   344.828448E+06       81.0567474
             1703   114.945312E+06   -57.468888E+06   -57.468728E+06       18.8961945   344.827424E+06       150.585907
             1704   114.935576E+06   -57.473732E+06   -57.472564E+06  -1.91042737E+03    344.82496E+06      -816.246582
             1705   114.941792E+06   -57.472128E+06   -57.471384E+06      -220.336823   344.828032E+06       183.063965
             1706   114.942984E+06   -57.470188E+06    -57.47006E+06      -87.0494614     344.8272E+06      -187.518356
             1707   114.936552E+06   -57.474788E+06   -57.478244E+06   1.32837842E+03   344.827296E+06      -992.564026
             1708   114.946856E+06   -57.468312E+06    -57.46766E+06       613.005676    344.82624E+06      -723.397766
             1709    114.94292E+06   -57.470932E+06   -57.471036E+06       6.04821682   344.827936E+06       8.15938663
             1710   114.943128E+06   -57.469996E+06   -57.468888E+06       971.534119   344.828544E+06       676.999512
             1711      114.943E+06    -57.47032E+06   -57.468884E+06       955.409851   344.828576E+06       593.764221
             1712   114.943792E+06   -57.470292E+06   -57.470472E+06       53.4148598   344.828192E+06      -28.5372772
             1713   114.992056E+06   -57.424864E+06   -57.425308E+06      -820.653870   344.819552E+06       669.404419
             1714   114.941408E+06   -57.472188E+06   -57.472476E+06       187.765289   344.827872E+06      -113.972237
             1715   114.948208E+06    -57.46662E+06   -57.467596E+06  -1.07835376E+03   344.825504E+06      -290.178864
             1716   114.951032E+06    -57.46336E+06   -57.462836E+06      -65.7984467   344.827456E+06       532.585083
             1717    114.90504E+06   -57.505384E+06    -57.50324E+06   2.02928101E+03   344.833472E+06      -992.299133
             1718   114.954696E+06   -57.458996E+06   -57.460256E+06   1.14838110E+03   344.828704E+06      -21.8538322
             1719      114.951E+06   -57.465104E+06   -57.462068E+06  -1.44675305E+03   344.826944E+06      -238.334976
             1720    114.95176E+06   -57.462588E+06   -57.463092E+06  -2.25797241E+03   344.826816E+06      -515.819214
             1721   114.942144E+06   -57.471836E+06    -57.47188E+06       155.605164   344.828032E+06      -76.3998718
             1722   114.928864E+06    -57.48116E+06   -57.480896E+06      -307.597137   344.827168E+06      -186.882019
             1723   114.943944E+06   -57.469808E+06   -57.468312E+06       476.143494   344.827744E+06       354.348907
             1724   114.940592E+06     -57.4727E+06    -57.47268E+06       547.313965   344.828128E+06       172.175766
             1725   114.937728E+06   -57.475324E+06   -57.478768E+06       880.371765   344.827872E+06   1.06901904E+03
             1726   114.955632E+06   -57.462296E+06   -57.462452E+06   1.22738171E+03   344.830912E+06      -420.916046
             1727   114.942032E+06   -57.472384E+06   -57.471088E+06       743.623413   344.828352E+06   1.56966467E+03
             1728   114.943344E+06   -57.470668E+06   -57.470632E+06      -272.844360   344.827776E+06       59.9774284
             1729     114.9412E+06   -57.472548E+06   -57.472632E+06       223.195236   344.828224E+06      -134.772827
             1730   114.942904E+06   -57.470188E+06    -57.47092E+06      -350.080170   344.827776E+06       541.106750
             1731   114.932248E+06    -57.48276E+06    -57.48352E+06      -749.471680    344.82992E+06   1.10068408E+03
             1732    114.94384E+06   -57.469496E+06   -57.469624E+06       96.4520035   344.827008E+06       587.453491
             1733   115.017528E+06   -57.404316E+06   -57.405088E+06   1.05947437E+03   344.817632E+06      -754.472168
             1734   114.913352E+06   -57.497932E+06   -57.498224E+06       143.451889   344.832384E+06      -395.485748
             1735   114.943704E+06   -57.469676E+06    -57.46974E+06       158.829636    344.82784E+06      -117.440773
             1736   114.944336E+06    -57.47322E+06   -57.474496E+06  -1.27239380E+03    344.82832E+06      -559.232056
             1737   114.981496E+06   -57.430448E+06   -57.426988E+06   1.75104358E+03   344.819872E+06       62.7239609
             1738   114.944768E+06       -57.47E+06   -57.469768E+06      -102.729446   344.827904E+06       180.107086
             1739   115.030896E+06   -57.396492E+06   -57.397692E+06   9.71091992E+03   344.823744E+06       946.909241
             1740   114.937648E+06   -57.475504E+06   -57.474812E+06       223.273285   344.828576E+06       169.634415
             1741   114.943448E+06   -57.470788E+06   -57.470796E+06       126.893066   344.828224E+06       126.121994
             1742   114.947648E+06     -57.4667E+06   -57.467376E+06       675.227966      344.828E+06       776.977173
             1743   114.943336E+06    -57.47072E+06   -57.470764E+06       82.5215302    344.82784E+06      -74.8948517
             1744   114.925352E+06   -57.486276E+06   -57.485108E+06   3.56304321E+03   344.829024E+06       374.539764
             1745   114.928184E+06    -57.48366E+06   -57.482432E+06  -5.41919434E+03   344.828448E+06       359.241577
             1746    114.94844E+06   -57.467472E+06   -57.465712E+06      -226.507950   344.828832E+06       186.836548
             1747   114.947624E+06   -57.467796E+06   -57.467304E+06       260.342712    344.82736E+06   1.16822400E+03
             1748    114.92508E+06    -57.48284E+06   -57.483788E+06       393.207855    344.82896E+06      -421.680450
             1749   114.943984E+06   -57.469324E+06   -57.469284E+06      -496.568817   344.826976E+06      -103.266930
             1750   114.938304E+06   -57.475236E+06    -57.47526E+06      -255.552338   344.828576E+06      -100.826508
             1751   114.946472E+06    -57.46838E+06    -57.46818E+06      -98.5630875   344.827616E+06      -36.7427177
             1752   114.978936E+06   -57.447684E+06   -57.446784E+06   2.46218115E+03    344.82576E+06   1.34256262E+03
             1753   114.943744E+06   -57.470044E+06   -57.469776E+06      -758.897888    344.82784E+06      -197.018188
             1754   114.940144E+06   -57.473536E+06    -57.47362E+06       276.795197   344.828416E+06      -134.250198
             1755   114.938064E+06   -57.474088E+06     -57.4764E+06      -764.191040   344.824672E+06      -13.2887878
             1756   114.949664E+06    -57.46472E+06    -57.46688E+06      -427.788727   344.828512E+06      -232.807358
             1757    114.94312E+06    -57.47176E+06   -57.470968E+06      -347.477936   344.828832E+06      -40.3427925
             1758     114.9298E+06   -57.477972E+06   -57.478928E+06  -1.82587646E+03      344.824E+06      -40.3947868
             1759   114.955216E+06   -57.458752E+06   -57.460624E+06  -4.52520557E+03   344.825632E+06      -171.963364
             1760   114.948624E+06     -57.4658E+06   -57.466696E+06       870.279846   344.828448E+06       106.717468
             1761   114.943912E+06   -57.473244E+06    -57.47328E+06      -85.2296753    344.83024E+06      -367.219971
             1762   114.943376E+06     -57.4703E+06   -57.470084E+06      -33.7182236   344.827392E+06      -165.209885
             1763   114.942784E+06   -57.471596E+06   -57.471792E+06      -146.881195   344.828288E+06      -494.813293
             1764   114.917664E+06   -57.492816E+06   -57.491208E+06  -7.11954443E+03   344.832512E+06      -524.900513
             1765     114.9442E+06    -57.47018E+06   -57.469832E+06       115.730759   344.828128E+06      -186.053146
             1766    114.94344E+06    -57.47162E+06   -57.470564E+06       195.810226   344.828896E+06       29.2844257
             1767   114.944912E+06    -57.46992E+06    -57.46952E+06      -135.065796   344.828416E+06      -458.488464
             1768    114.94368E+06   -57.470536E+06   -57.470372E+06       163.149460      344.828E+06      -27.4168530
             1769   114.929272E+06   -57.482364E+06   -57.480376E+06       755.176392   344.831584E+06       692.632202
             1770   114.968184E+06   -57.451004E+06   -57.449856E+06      -87.1934891   344.829664E+06   1.18654968E+03
             1771     114.9416E+06   -57.472312E+06    -57.47224E+06       70.2540207   344.827968E+06       50.5787926
             1772   114.943744E+06   -57.470492E+06   -57.470372E+06      -395.355560    344.82784E+06      -94.8446884
             1773   114.938216E+06   -57.474736E+06   -57.475332E+06      -102.032524   344.828384E+06       275.864563
             1774    114.94424E+06    -57.47008E+06     -57.4701E+06       93.9435654    344.82784E+06       77.9125595
             1775   114.945144E+06   -57.469192E+06    -57.46928E+06      -251.247360   344.827456E+06      -87.4134750
             1776   114.944088E+06   -57.470036E+06   -57.469904E+06       13.4915438   344.827968E+06       52.3759193
             1777   114.941904E+06   -57.471116E+06   -57.471444E+06      -140.045807   344.827296E+06      -263.157135
             1778   114.959152E+06   -57.459452E+06   -57.457676E+06      -916.653381   344.830592E+06      -934.597656
             1779    114.94304E+06    -57.47116E+06    -57.47118E+06      -20.6344585   344.827904E+06      -41.3077011
             1780   114.942072E+06   -57.471968E+06   -57.471888E+06      -80.2772675   344.828032E+06       100.623718
             1781   114.941776E+06   -57.472208E+06   -57.471876E+06      -40.9790001   344.828288E+06      -197.795670
             1782   114.918464E+06   -57.487832E+06   -57.488256E+06   9.25567676E+03   344.823584E+06       564.933228
             1783   114.883184E+06   -57.523252E+06   -57.522504E+06   1.91180029E+03   344.835968E+06       686.504211
             1784   114.945632E+06   -57.469076E+06   -57.468756E+06      -321.908447    344.82816E+06      -139.438904
             1785   114.897264E+06   -57.514288E+06   -57.513252E+06  -6.21803760E+03   344.836576E+06       460.384491
             1786   114.944688E+06    -57.47004E+06    -57.47004E+06       446.257477   344.828352E+06      -8.01698399
             1787    114.94296E+06   -57.470728E+06   -57.470464E+06       10.5515614   344.827968E+06      -183.456726
             1788   114.945872E+06   -57.468264E+06   -57.469528E+06   1.13294067E+03    344.82608E+06      -48.0458450
             1789   114.942568E+06   -57.471888E+06   -57.471888E+06       79.7249756    344.82832E+06      -246.130646
             1790     114.9466E+06   -57.467068E+06    -57.46636E+06       68.6875534   344.827296E+06       941.012207
             1791      114.946E+06   -57.465092E+06   -57.466384E+06       691.614746    344.82688E+06       929.770447
             1792   114.922496E+06    -57.48502E+06     -57.4846E+06  -1.59211218E+03   344.826336E+06      -258.916504
             1793    114.93936E+06   -57.473384E+06   -57.473468E+06      -732.726685   344.827456E+06      -14.0550432
             1794    114.92052E+06   -57.487524E+06   -57.487456E+06  -2.28434717E+03    344.82592E+06      -231.917023
             1795   114.942712E+06    -57.47086E+06   -57.470824E+06       157.677216   344.827712E+06       2.44255424
             1796   114.943384E+06   -57.470576E+06   -57.470292E+06       12.2471495   344.828032E+06      -124.964836
             1797    114.94612E+06   -57.466488E+06    -57.46686E+06  -4.29850830E+03   344.824352E+06       370.530579
             1798      114.924E+06   -57.488528E+06   -57.487132E+06   1.80605090E+03   344.833152E+06       530.121582
             1799    114.96276E+06   -57.448224E+06   -57.446516E+06   1.57256885E+03    344.82208E+06   1.18699158E+03
             1800   114.944176E+06   -57.469972E+06   -57.469836E+06      -36.5709572   344.828352E+06      -397.428589
             1801   114.944816E+06   -57.469332E+06   -57.469348E+06      -76.8360138   344.827648E+06       200.640778
             1802   114.931368E+06   -57.478316E+06   -57.480524E+06       577.207397   344.829472E+06       212.502686
             1803   114.935904E+06   -57.472412E+06   -57.471564E+06      -657.212524   344.828064E+06  -1.06898694E+03
             1804   114.920344E+06   -57.497468E+06   -57.498852E+06  -3.56156201E+03   344.836416E+06       994.563965
             1805   114.882728E+06   -57.516592E+06     -57.5174E+06   2.00282397E+03   344.825152E+06      -741.539063
             1806   114.945888E+06   -57.468132E+06   -57.468192E+06       113.759605    344.82752E+06      -151.360107
             1807   114.943624E+06   -57.470448E+06   -57.470516E+06      -180.502182   344.827168E+06      -326.800812
             1808   114.932024E+06    -57.47614E+06   -57.477336E+06  -1.83967102E+03   344.826656E+06       691.350220
             1809   114.894584E+06   -57.508028E+06   -57.506764E+06  -4.76175342E+03   344.833184E+06      -372.695892
             1810   114.943768E+06   -57.471312E+06   -57.470444E+06      -264.193634   344.829408E+06      -10.2601843
             1811     114.9464E+06    -57.46732E+06   -57.467352E+06      -833.688904   344.826912E+06      -67.3258972
             1812   114.934752E+06    -57.48062E+06    -57.48046E+06       501.738190   344.828992E+06   1.09396228E+03
             1813     114.9434E+06   -57.470644E+06   -57.470396E+06      -188.862183   344.828256E+06      -163.266388
             1814   114.943528E+06     -57.4708E+06   -57.470728E+06       458.406403    344.82816E+06      -65.4225922
             1815    114.94636E+06    -57.46816E+06   -57.468156E+06       40.0989265   344.827584E+06       97.9248505
             1816   114.949032E+06    -57.46684E+06   -57.466736E+06  -2.79610376E+03   344.828288E+06       197.399399
             1817    114.94312E+06    -57.47082E+06   -57.469928E+06   2.68560327E+03    344.83024E+06       443.267914
             1818   114.945912E+06     -57.4695E+06   -57.469028E+06  -2.16018823E+03   344.826784E+06       699.872070
             1819   114.938008E+06   -57.474016E+06   -57.477024E+06   1.03516248E+03   344.825856E+06       192.936142
             1820   114.940472E+06    -57.47324E+06   -57.473296E+06       357.650757   344.828512E+06      -151.276917
             1821   114.970168E+06   -57.448428E+06   -57.449404E+06   5.80281104E+03   344.824768E+06       81.1033859
             1822   114.957088E+06    -57.45848E+06   -57.458576E+06   2.36012085E+03   344.825408E+06       262.247803
             1823   114.928032E+06   -57.486648E+06    -57.48756E+06  -1.90611194E+03    344.83328E+06   1.15499023E+03
             1824   114.943136E+06   -57.471216E+06   -57.471032E+06       543.255188   344.828576E+06      -198.423782
             1825   114.967264E+06   -57.452816E+06   -57.453532E+06  -4.85192725E+03   344.829888E+06  -1.01647076E+03
             1826   114.936464E+06   -57.472796E+06    -57.47546E+06  -1.08540759E+03   344.824064E+06      -972.511658
             1827   114.940328E+06   -57.472632E+06   -57.473204E+06       287.473389   344.827968E+06      -352.170197
             1828    114.95032E+06   -57.463644E+06   -57.463888E+06   2.34987964E+03   344.829312E+06      -526.473938
             1829   114.929304E+06   -57.487244E+06   -57.485304E+06   1.53708362E+03    344.82912E+06   1.30633557E+03
             1830    114.96648E+06   -57.457072E+06   -57.455748E+06  -4.03687744E+03     344.8328E+06       106.067291
             1831   114.938072E+06   -57.473036E+06   -57.474628E+06  -1.17742627E+03   344.826656E+06      -340.769806
             1832   114.947864E+06   -57.464764E+06   -57.465956E+06       289.607056   344.828512E+06       489.913727
             1833   114.957608E+06   -57.453632E+06   -57.451056E+06      -573.800232   344.823328E+06   1.66859546E+03
             1834   114.958584E+06   -57.450084E+06     -57.4509E+06  -1.74384521E+03   344.823936E+06   1.78037866E+03
             1835   114.953672E+06   -57.460928E+06   -57.460752E+06      -371.767181   344.826208E+06      -201.759781
             1836   114.940064E+06   -57.473504E+06   -57.472844E+06       84.8955536   344.827904E+06       198.357513
             1837    114.94652E+06    -57.46688E+06   -57.467572E+06      -635.556885   344.827296E+06      -507.154907
             1838   114.941448E+06    -57.47252E+06    -57.47254E+06       211.632462   344.827904E+06      -264.065002
             1839   114.928384E+06    -57.48198E+06   -57.482424E+06   1.30742725E+03    344.82816E+06      -161.770828
             1840   114.936656E+06    -57.47884E+06   -57.478728E+06       409.089294    344.82864E+06   1.09479712E+03
             1841    114.93292E+06     -57.4816E+06   -57.478752E+06      -516.382751   344.829984E+06       601.812805
             1842   114.934832E+06   -57.477912E+06   -57.476164E+06   2.62446655E+03   344.828128E+06       213.199982
             1843    114.93088E+06   -57.480508E+06    -57.48422E+06      -298.831085   344.830432E+06   1.44181543E+03
             1844   114.941312E+06   -57.471612E+06   -57.472688E+06      -118.868759   344.827392E+06      -517.240784
             1845    114.95028E+06    -57.46286E+06   -57.463784E+06  -1.72667529E+03   344.828736E+06       256.140472
             1846   114.945696E+06   -57.468136E+06   -57.467612E+06      -383.944824   344.828128E+06      -374.306458
             1847   114.950128E+06   -57.461468E+06   -57.460408E+06      -561.279663   344.825504E+06      -308.431366
             1848   114.937888E+06   -57.474608E+06   -57.474236E+06       268.649078    344.82672E+06       615.509766
             1849   114.978096E+06   -57.441428E+06   -57.440272E+06  -2.58549854E+03    344.82384E+06      -81.7651062
             1850   114.944904E+06   -57.465808E+06    -57.46602E+06      -679.806152    344.82656E+06       338.161102
             1851    114.92048E+06   -57.491428E+06    -57.49178E+06   3.19171094E+03   344.829088E+06      -276.674927
             1852   114.955152E+06   -57.463884E+06   -57.464216E+06   5.06183301E+03   344.828544E+06      -706.796204
             1853   114.884232E+06   -57.514552E+06   -57.513468E+06      -711.572510   344.829632E+06       504.567474
             1854   114.948152E+06   -57.465632E+06   -57.466152E+06       916.513184   344.827904E+06       1.79627287
             1855   114.943192E+06   -57.470576E+06   -57.469884E+06   1.00645343E+03   344.828576E+06       478.243408
             1856    114.95512E+06    -57.46276E+06    -57.46248E+06      -702.162231   344.829248E+06       156.305420
             1857    114.94216E+06    -57.47218E+06    -57.47144E+06      -20.6033077   344.828672E+06      -250.079086
             1858   114.928008E+06   -57.480924E+06   -57.481284E+06   1.66356445E+03    344.82688E+06       440.635651
             1859   114.957872E+06   -57.463692E+06   -57.464168E+06   1.77559717E+03   344.828896E+06       566.318970
             1860   114.952088E+06   -57.463272E+06    -57.46072E+06   1.99907166E+03   344.823552E+06      -5.66754293
             1861   114.937928E+06   -57.473944E+06   -57.475172E+06      -427.901215   344.827328E+06       205.184830
             1862   114.942416E+06   -57.471264E+06   -57.471032E+06       116.017723   344.828096E+06      -17.9122467
             1863    114.93276E+06    -57.47538E+06   -57.478212E+06      -48.8130150   344.828672E+06       471.956421
             1864   114.936864E+06    -57.47236E+06   -57.471004E+06   1.84884167E+03    344.82832E+06      -96.6062775
             1865   114.941312E+06   -57.470784E+06   -57.469792E+06      -268.243073   344.828032E+06      -168.898743
             1866   114.941096E+06   -57.472504E+06    -57.47266E+06       260.333191   344.828064E+06       141.174164
             1867   114.918032E+06     -57.4907E+06   -57.490592E+06   2.82206616E+03    344.83152E+06       777.637817
             1868    114.93892E+06   -57.475688E+06   -57.475668E+06       455.186035   344.827616E+06   1.25762769E+03
             1869   114.938536E+06   -57.474096E+06    -57.47288E+06       938.711304    344.82784E+06       22.5631161
             1870   114.937416E+06   -57.477732E+06   -57.475716E+06  -3.24749097E+03   344.831488E+06   1.19791785E+03
             1871   114.885008E+06   -57.518484E+06   -57.517316E+06   11.8778008E+03   344.830848E+06      -783.225464
             1872   114.947024E+06   -57.465544E+06   -57.464488E+06       126.054665   344.827776E+06      -62.0649910
             1873   114.941816E+06   -57.471408E+06   -57.471692E+06       12.3108177   344.828032E+06      -157.050125
             1874   114.952432E+06   -57.461972E+06   -57.463912E+06  -6.01088086E+03   344.825312E+06   1.05855139E+03
             1875   114.940528E+06   -57.474328E+06   -57.474832E+06       192.963165   344.828128E+06      -551.704346
             1876   114.961208E+06   -57.454364E+06   -57.456308E+06  -2.04765466E+03    344.82496E+06      -15.0702763
             1877    114.97132E+06   -57.445476E+06   -57.446784E+06  -3.78171240E+03   344.823808E+06   1.84168323E+03
             1878    114.94344E+06   -57.470568E+06     -57.4708E+06      -316.772858   344.828032E+06      -93.3405914
             1879   114.948488E+06   -57.465548E+06   -57.464644E+06       272.081757    344.82688E+06      -943.308777
             1880   114.941808E+06   -57.473096E+06   -57.471632E+06      -26.5000839   344.828032E+06      -217.522797
             1881    114.94032E+06   -57.474676E+06      -57.474E+06       313.124878      344.828E+06       186.077103
             1882   114.942432E+06   -57.471484E+06   -57.471616E+06       247.312592   344.827968E+06       51.7942314
             1883   114.945216E+06   -57.468568E+06   -57.467612E+06       499.429108   344.827456E+06      -922.184631
             1884   114.943192E+06   -57.470856E+06   -57.470848E+06      -138.453583   344.828064E+06      -176.649994
             1885   114.941088E+06   -57.472524E+06   -57.472244E+06      -98.1560516   344.828256E+06      -57.9212837
             1886   114.944296E+06   -57.469108E+06    -57.46984E+06       167.838242   344.827136E+06      -149.390945
             1887   114.942456E+06   -57.471328E+06   -57.471476E+06      -3.64446568   344.827808E+06       24.3629837
             1888   114.942968E+06   -57.470792E+06   -57.471292E+06       165.333588    344.82768E+06      -185.935989
             1889   114.975104E+06   -57.449088E+06   -57.448784E+06   1.67524219E+03   344.827648E+06      -346.131012
             1890   114.942256E+06   -57.471156E+06   -57.470968E+06      -174.881943    344.82768E+06       112.436996
             1891   114.940376E+06   -57.477636E+06   -57.478284E+06       385.995483   344.832576E+06      -271.254028
             1892   114.950384E+06   -57.464944E+06   -57.464912E+06      -825.124634    344.82816E+06  -1.01078943E+03
             1893   114.941096E+06   -57.472592E+06   -57.472304E+06      -109.367699   344.828032E+06       136.995483
             1894   114.939352E+06   -57.473024E+06   -57.473716E+06       51.0558891   344.827392E+06      -140.005981
             1895   114.945096E+06   -57.469432E+06   -57.467992E+06       198.813339   344.828608E+06       126.986038
             1896   114.919208E+06   -57.488256E+06   -57.488504E+06  -1.21723169E+03    344.82624E+06       268.867920
             1897   114.952304E+06   -57.460944E+06   -57.459612E+06  -1.67533252E+03   344.825568E+06      -628.883362
             1898   114.935088E+06    -57.47902E+06   -57.478024E+06      -465.051697   344.828448E+06   1.10264319E+03
             1899   114.952288E+06   -57.466624E+06   -57.465664E+06       937.143616    344.82816E+06      -581.265442
             1900   114.951264E+06   -57.466904E+06   -57.466968E+06      -419.845428   344.827392E+06  -1.27835669E+03
             1901   114.955848E+06   -57.460652E+06   -57.462352E+06  -3.22274390E+03   344.830656E+06      -842.729553
             1902   114.950496E+06    -57.46488E+06   -57.464424E+06      -49.9075165   344.827168E+06      -145.008408
             1903   114.941648E+06   -57.471464E+06   -57.471244E+06       299.389496    344.82752E+06       250.634979
             1904   114.953736E+06    -57.46676E+06   -57.467644E+06   8.58488965E+03   344.833312E+06      -353.271790
             1905    114.94356E+06   -57.469896E+06   -57.469372E+06      -46.0434418    344.82768E+06      -83.3109436
             1906   114.946856E+06   -57.469092E+06   -57.468068E+06      -700.353271   344.826464E+06      -802.833862
             1907    114.94628E+06   -57.470168E+06   -57.471268E+06       379.708832   344.827936E+06       563.663696
             1908   114.949048E+06   -57.464304E+06   -57.463864E+06      -168.278809    344.82672E+06       586.910339
             1909   114.943544E+06   -57.469328E+06   -57.469716E+06  -6.14354883E+03   344.824608E+06      -594.329895
             1910     114.9084E+06   -57.499196E+06   -57.500144E+06   2.10981958E+03   344.827328E+06       503.345276
             1911   114.944248E+06   -57.468036E+06    -57.46766E+06   1.75992249E+03    344.82576E+06       136.970123
             1912     114.9974E+06   -57.425648E+06    -57.43016E+06   6.17523437E+03   344.824864E+06      -281.403076
             1913   114.972712E+06   -57.441264E+06   -57.440156E+06  -2.93487891E+03   344.822176E+06      -420.896790
             1914     114.9434E+06   -57.469936E+06     -57.4694E+06      -89.3032990   344.827872E+06      -429.681976
             1915   114.942384E+06   -57.470136E+06   -57.470984E+06       137.397278   344.828768E+06       24.1677818
             1916   114.942928E+06   -57.470464E+06   -57.470188E+06      -107.778618   344.827808E+06      -103.969566
             1917   114.944608E+06   -57.469784E+06   -57.469516E+06      -137.048737   344.828256E+06      -94.5011978
             1918   114.943864E+06   -57.470132E+06   -57.470184E+06       661.137085   344.827968E+06       758.862549
             1919   114.848112E+06   -57.547096E+06   -57.547252E+06   1.78683752E+03   344.830496E+06      -290.481903
             1920     114.9438E+06   -57.470312E+06   -57.469816E+06       34.3210831    344.82816E+06      -241.290543
             1921   114.942224E+06   -57.471756E+06   -57.471672E+06      -185.790695   344.827904E+06      -40.2706718
             1922     114.9428E+06   -57.463964E+06   -57.464428E+06  -1.37944568E+03   344.824096E+06  -1.32285083E+03
             1923   114.943632E+06    -57.47048E+06     -57.4701E+06       3.64436793    344.82816E+06      -138.344940
             1924   114.949368E+06   -57.467384E+06   -57.466968E+06   1.60296851E+03    344.82816E+06       773.176086
             1925   114.942592E+06    -57.47144E+06   -57.471148E+06       170.856827   344.828224E+06      -175.061005
             1926   114.919336E+06   -57.493908E+06    -57.49476E+06  -2.13380029E+03   344.833088E+06      -238.684525
             1927   114.944152E+06   -57.469688E+06   -57.471068E+06  -1.23942749E+03   344.826944E+06      -189.574142
             1928   114.939136E+06    -57.47794E+06    -57.47882E+06      -629.003357   344.830112E+06  -1.67187085E+03
             1929   114.942496E+06   -57.471676E+06   -57.471804E+06      -155.278442   344.827776E+06      -309.333130
             1930   114.941056E+06    -57.47204E+06    -57.47246E+06       57.8381729   344.828096E+06      -160.224915
             1931   114.942464E+06    -57.47144E+06   -57.471204E+06       88.6337433      344.828E+06       208.431000
             1932   114.942736E+06   -57.471376E+06   -57.471008E+06       7.95047331   344.828192E+06      -115.659691
             1933   114.941144E+06   -57.472448E+06   -57.472596E+06       259.720917   344.828064E+06       144.729630
             1934     114.9422E+06    -57.47262E+06   -57.472404E+06       440.510101    344.82864E+06       177.796600
             1935   114.943472E+06   -57.474056E+06   -57.474212E+06      -233.197037   344.831904E+06       81.5932007
             1936   114.943024E+06     -57.4707E+06    -57.47052E+06       21.4217720   344.827712E+06       72.0272293
             1937   114.954456E+06   -57.460636E+06   -57.460308E+06  -1.11889209E+03   344.824544E+06      -100.556511
             1938   114.942544E+06    -57.47262E+06    -57.47336E+06      -747.089539   344.827552E+06   1.09798364E+03
             1939    114.94336E+06    -57.47086E+06   -57.470512E+06       20.4667816   344.828128E+06      -47.2316360
             1940   114.937928E+06   -57.474408E+06   -57.474672E+06  -1.38031958E+03   344.829824E+06       266.560150
             1941    114.94128E+06    -57.47206E+06   -57.472296E+06       82.6223297   344.828128E+06      -194.250305
             1942   114.942464E+06   -57.471392E+06   -57.471088E+06      -65.0518646   344.827936E+06       24.9991741
             1943   114.942432E+06   -57.471452E+06    -57.47194E+06       43.1469688   344.827712E+06      -207.336731
             1944   114.942096E+06   -57.470816E+06   -57.471136E+06      -57.2791824   344.827584E+06      -114.339470
             1945   114.942528E+06    -57.47142E+06    -57.47138E+06      -22.6126404   344.827936E+06       26.7407513
             1946     114.9426E+06   -57.475236E+06   -57.474504E+06   1.34592505E+03   344.828192E+06      -985.649780
             1947   114.947336E+06   -57.467424E+06   -57.467232E+06       170.039337   344.827488E+06       110.834549
             1948   114.924528E+06     -57.4843E+06   -57.485212E+06   3.14510986E+03   344.825408E+06       76.4694443
             1949   114.940816E+06    -57.47646E+06   -57.476964E+06       194.313583   344.829312E+06  -1.15252917E+03
             1950   114.931704E+06   -57.479812E+06   -57.480296E+06  -2.25622217E+03   344.830176E+06   1.24178735E+03
             1951   114.943144E+06    -57.47236E+06   -57.472604E+06       438.103424   344.827776E+06       368.542877
             1952   114.941512E+06   -57.469348E+06     -57.4701E+06  -1.13212195E+03   344.827936E+06       944.212830
             1953   114.957424E+06   -57.460056E+06   -57.461184E+06      -861.619568   344.827296E+06       186.043335
             1954   114.942376E+06    -57.47122E+06   -57.471596E+06       216.991547   344.827968E+06      -119.828110
             1955   114.943968E+06   -57.469628E+06   -57.469668E+06      -278.321014   344.827552E+06       160.865128
             1956   114.986648E+06   -57.434924E+06   -57.436512E+06   2.59081396E+03   344.824128E+06       935.539734
             1957   114.943448E+06      -57.471E+06   -57.470956E+06      -53.1055565   344.828064E+06       84.3364639
             1958   114.903904E+06   -57.502592E+06   -57.500612E+06      -108.971214   344.830496E+06      -942.002014
             1959   114.944976E+06    -57.46916E+06   -57.468372E+06      -345.160553   344.827424E+06       268.675873
             1960   114.940648E+06    -57.47288E+06   -57.472924E+06      -449.651733   344.827968E+06      -106.212410
             1961   114.939992E+06     -57.4744E+06   -57.473452E+06       193.270187    344.82816E+06      -466.596497
             1962   114.949552E+06   -57.464672E+06   -57.464168E+06      -614.286621   344.826368E+06       985.242310
             1963   114.949168E+06    -57.46332E+06   -57.464668E+06   1.62286670E+03   344.827136E+06       320.641235
             1964    114.94308E+06   -57.470992E+06   -57.470876E+06      -3.99761081   344.828032E+06      -13.5415220
             1965   114.931888E+06   -57.478256E+06   -57.476484E+06  -2.48643018E+03    344.82784E+06       208.003525
             1966   114.940992E+06   -57.472472E+06   -57.473292E+06   1.23007385E+03   344.828352E+06   1.48646680E+03
             1967    114.94064E+06    -57.47434E+06   -57.475824E+06   1.59095679E+03   344.829088E+06      -533.216614
             1968   114.947416E+06   -57.466756E+06   -57.465272E+06   3.11632349E+03   344.825984E+06       34.9664078
             1969   114.943048E+06   -57.470032E+06    -57.47022E+06       919.537231   344.827648E+06      -13.1673460
             1970   114.937584E+06   -57.475328E+06   -57.475388E+06       70.9560394    344.82816E+06      -202.431702
             1971   114.939656E+06   -57.474976E+06   -57.476164E+06       197.766800   344.827744E+06      -162.534698
             1972   114.912512E+06   -57.492304E+06   -57.493512E+06   2.12107861E+03    344.82112E+06   1.41231970E+03
             1973   114.936256E+06   -57.474392E+06   -57.474728E+06  -7.86838135E+03   344.826752E+06      -544.344238
             1974    114.90164E+06   -57.504576E+06   -57.504892E+06  -8.49915918E+03   344.830176E+06      -531.391479
             1975   114.904864E+06   -57.503064E+06   -57.502284E+06   4.96844629E+03   344.830304E+06       536.549805
             1976   114.952848E+06   -57.460632E+06   -57.460612E+06      -360.047028   344.825248E+06   1.95169458E+03
             1977   114.952976E+06   -57.462048E+06   -57.462524E+06  -3.85961719E+03    344.82848E+06   1.59281299E+03
             1978    114.93128E+06   -57.485992E+06   -57.489908E+06       789.509033   344.830016E+06       350.934753
             1979   114.936024E+06   -57.474556E+06   -57.474112E+06  -2.96247632E+03    344.82864E+06   2.05620483E+03
             1980   114.920624E+06     -57.4882E+06   -57.488772E+06      -297.054413   344.830432E+06       438.786133
             1981   114.937856E+06   -57.475204E+06   -57.475196E+06      -138.748489   344.828096E+06      -6.25165510
             1982    114.93844E+06    -57.47592E+06   -57.476612E+06      -86.2344818   344.828992E+06      -182.798248
             1983   114.939376E+06   -57.473652E+06   -57.473364E+06      -206.504044   344.827168E+06       537.353027
             1984   114.949736E+06   -57.466876E+06   -57.467732E+06      -863.040039   344.828064E+06  -1.17522510E+03
             1985   114.951072E+06   -57.465828E+06   -57.466508E+06      -179.968246   344.828192E+06      -689.364868
             1986     114.9516E+06   -57.463244E+06   -57.463868E+06   2.09215918E+03   344.827904E+06       768.333679
             1987    114.92348E+06   -57.482224E+06   -57.482704E+06  -3.99241309E+03    344.82544E+06       356.731689
             1988   114.935304E+06   -57.479652E+06   -57.479576E+06  -2.36125366E+03   344.830528E+06       118.729111
             1989   114.952664E+06    -57.46352E+06   -57.462528E+06   1.75686829E+03   344.826304E+06       191.746445
             1990    114.94228E+06   -57.469572E+06    -57.46928E+06   1.32190564E+03   344.826816E+06       563.061523
             1991   114.937864E+06   -57.474224E+06   -57.476516E+06   1.42186365E+03   344.826208E+06   1.04610193E+03
             1992   114.947024E+06   -57.467644E+06   -57.468856E+06   6.60019092E+03   344.825504E+06       846.614197
             1993    114.94412E+06    -57.46998E+06     -57.4696E+06      -149.252899   344.827648E+06      -207.195801
             1994   114.944456E+06   -57.469632E+06   -57.468652E+06      -138.380814   344.827776E+06       325.282715
             1995   114.955704E+06   -57.464048E+06   -57.461552E+06   1.03189819E+03   344.830464E+06       231.868591
             1996   114.944296E+06   -57.468656E+06    -57.46786E+06      -160.823288   344.827072E+06      -147.299210
             1997   114.945032E+06   -57.470152E+06   -57.468816E+06       153.438812   344.827552E+06      -622.935913
             1998   114.948928E+06    -57.46398E+06   -57.465048E+06  -5.42146680E+03    344.82624E+06   1.24127087E+03
             1999   114.983032E+06   -57.439988E+06   -57.439892E+06       260.876923    344.82784E+06      -516.505493
             2000   114.929216E+06   -57.487144E+06   -57.487908E+06       73.7076569   344.833312E+06       474.713409
             2001   114.942448E+06   -57.471104E+06   -57.471664E+06      -317.490295   344.828448E+06      -53.4586678
             2002   114.952072E+06   -57.466596E+06   -57.465492E+06      -110.819809   344.829888E+06  -1.04415210E+03
             2003   114.942632E+06   -57.471544E+06   -57.471836E+06       139.682953   344.828128E+06       122.004494
             2004    114.94196E+06   -57.471716E+06    -57.47178E+06       195.676590    344.82784E+06       32.8773232
             2005   114.939488E+06   -57.474088E+06   -57.474052E+06      -133.605103   344.828096E+06       167.132370
             2006   114.943672E+06   -57.470432E+06   -57.469952E+06       376.877289   344.828032E+06       3.69698620
             2007    114.94276E+06   -57.471244E+06   -57.471388E+06       158.529221   344.828256E+06       20.8768768
             2008   114.945248E+06   -57.469648E+06   -57.469144E+06       40.5548058   344.828128E+06       148.208359
             2009   114.947552E+06   -57.467348E+06   -57.467416E+06      -635.631531   344.827904E+06       67.0340042
             2010   114.942744E+06   -57.470992E+06   -57.470536E+06       622.820557   344.828576E+06       347.272614
             2011   114.942968E+06    -57.46822E+06   -57.467648E+06      -140.078568   344.825632E+06       306.360687
             2012   114.939616E+06   -57.472924E+06   -57.472756E+06       181.934631   344.826944E+06      -44.5940781
             2013   114.940768E+06   -57.473512E+06   -57.474016E+06       69.1972351   344.827904E+06       283.590790
             2014   114.943184E+06   -57.470852E+06   -57.470932E+06      -226.355927   344.828064E+06       235.931335
             2015   114.940216E+06    -57.47236E+06    -57.47222E+06       90.2985458    344.82688E+06      -47.2178154
             2016   114.950728E+06   -57.460828E+06   -57.462372E+06      -634.254639   344.828064E+06       128.393906
             2017   114.943296E+06    -57.47082E+06   -57.471088E+06       68.1620407   344.827744E+06       47.4661522
             2018    114.94436E+06   -57.469872E+06   -57.469884E+06       97.6711884   344.828032E+06       174.308228
             2019   114.943856E+06   -57.470196E+06   -57.470468E+06       98.4747314   344.827776E+06       100.560005
             2020   114.942336E+06   -57.471212E+06   -57.471216E+06       31.1618061   344.827552E+06       47.3258934
             2021   114.903776E+06   -57.500956E+06   -57.502312E+06   1.95522449E+03   344.828608E+06   1.20024597E+03
             2022   114.946064E+06   -57.469008E+06    -57.46904E+06      -20.8682251    344.82768E+06      -209.339157
             2023   114.946112E+06   -57.468836E+06   -57.468632E+06       359.587280   344.828032E+06      -205.169632
             2024   114.943672E+06   -57.470428E+06    -57.47052E+06       164.116730   344.828032E+06       102.864998
             2025   114.942784E+06   -57.471144E+06   -57.471316E+06      -15.0986300   344.828192E+06       13.4771042
             2026    114.94316E+06   -57.470796E+06   -57.470828E+06       42.9798393   344.828032E+06      -71.4632721
             2027   114.944192E+06    -57.46734E+06    -57.46938E+06      -620.010132   344.825184E+06      -27.7757511
             2028   114.938288E+06    -57.47502E+06   -57.474804E+06   1.37777136E+03   344.831424E+06       173.243362
             2029   114.934384E+06   -57.477192E+06      -57.478E+06       612.142273    344.82896E+06      -824.911072
             2030   114.946072E+06   -57.469116E+06   -57.468708E+06       171.923019   344.827584E+06      -132.894028
             2031   114.943624E+06   -57.470304E+06    -57.47036E+06       62.7026100   344.827872E+06      -94.2796936
             2032   114.945184E+06    -57.47026E+06    -57.46966E+06       114.824554    344.82784E+06       27.5910740
             2033   114.939808E+06   -57.475336E+06   -57.474296E+06       730.218628   344.828864E+06      -308.745514
             2034   114.938336E+06   -57.472996E+06   -57.472708E+06       58.1274261   344.827712E+06  -1.42551733E+03
             2035   114.935872E+06   -57.476412E+06   -57.476096E+06   1.34705676E+03    344.82832E+06      -125.779243
             2036   114.940912E+06   -57.470212E+06     -57.4698E+06  -1.87126013E+03   344.828384E+06      -792.709412
             2037   114.939688E+06   -57.474852E+06   -57.475052E+06      -53.9356613   344.828832E+06      -542.098572
             2038   114.941096E+06   -57.473624E+06   -57.474788E+06  -2.01650061E+03      344.828E+06       684.247803
             2039   114.944448E+06   -57.469544E+06   -57.469856E+06      -124.798325   344.827264E+06       93.9471359
             2040   114.942728E+06   -57.471172E+06   -57.470816E+06       16.9609451      344.828E+06      -138.229996
             2041   114.942448E+06   -57.470768E+06   -57.470592E+06      -74.3327560   344.826976E+06      -36.3271637
             2042   114.942328E+06   -57.471248E+06    -57.47128E+06      -96.6603928    344.82752E+06      -120.882195
             2043   114.942872E+06   -57.471124E+06   -57.470976E+06       186.362000   344.827776E+06      -81.6624832
             2044   114.943336E+06   -57.470416E+06   -57.469904E+06       78.2767410      344.828E+06       51.1077881
             2045   114.943056E+06   -57.470804E+06   -57.470412E+06       26.9896755      344.828E+06      -99.3730774
             2046   114.942416E+06    -57.47144E+06   -57.471192E+06       59.1946983   344.827968E+06      -58.6281319
             2047   114.942568E+06     -57.4713E+06   -57.470736E+06       225.175293   344.828032E+06       155.340820
             2048    114.94524E+06   -57.468356E+06   -57.468124E+06      -298.313141   344.827744E+06       358.573212
             2049   114.942768E+06   -57.471036E+06   -57.470972E+06       9.43167782   344.827936E+06      -91.0287704
             2050   114.943184E+06   -57.470788E+06   -57.470848E+06       132.783249   344.828032E+06       62.5299568
             2051   114.971896E+06   -57.449132E+06   -57.448788E+06  -3.52558252E+03   344.826656E+06      -330.475830
             2052   114.939376E+06   -57.473744E+06   -57.473864E+06      -235.005600    344.82816E+06       239.372986
             2053   114.943696E+06   -57.471308E+06   -57.470576E+06  -1.29181470E+03    344.82752E+06       78.8159103
             2054   114.962464E+06   -57.453416E+06   -57.453872E+06  -3.06451733E+03    344.82272E+06      -825.290771
             2055   114.941768E+06   -57.472372E+06   -57.472512E+06      -16.4800777    344.82832E+06       63.6558075
             2056   114.931296E+06   -57.483668E+06   -57.483636E+06  -2.03881482E+03   344.831584E+06       135.599701
             2057    114.94552E+06   -57.467992E+06   -57.467876E+06      -997.325012   344.827104E+06      -278.089722
             2058   114.934816E+06   -57.479212E+06   -57.478288E+06      -959.836609   344.828832E+06      -977.677979
             2059   114.939736E+06   -57.474852E+06   -57.473628E+06  -1.64347546E+03   344.827488E+06      -469.030182
             2060   114.941256E+06   -57.473168E+06   -57.472624E+06      -254.460358    344.82912E+06       521.706238
             2061    114.94164E+06   -57.472436E+06   -57.472716E+06      -894.735107   344.829056E+06      -556.360596
             2062   114.946296E+06   -57.468256E+06    -57.46788E+06      -307.773743   344.827392E+06       586.393982
             2063   114.946984E+06    -57.46824E+06   -57.468244E+06       815.197815   344.828768E+06       36.6554451
             2064    114.94344E+06    -57.47138E+06   -57.470372E+06       152.862411   344.828704E+06       534.375671
             2065   114.943888E+06    -57.47112E+06   -57.472368E+06      -708.979980   344.827712E+06       211.837067
             2066   114.944016E+06   -57.470396E+06   -57.470772E+06       267.200470   344.828064E+06       11.2863941
             2067   114.940424E+06   -57.473944E+06   -57.473988E+06       521.857239   344.828896E+06      -115.967545
             2068   114.941216E+06   -57.472976E+06   -57.473292E+06       16.1772423   344.828384E+06       94.7628632
             2069   114.943192E+06   -57.470904E+06   -57.471028E+06       152.744217   344.827584E+06       13.9416819
             2070   114.943152E+06   -57.469736E+06   -57.470408E+06      -497.511139   344.827072E+06      -213.751480
             2071   114.923352E+06    -57.48256E+06   -57.485696E+06  -1.43713525E+03   344.828448E+06      -766.607361
             2072   114.942544E+06   -57.471552E+06    -57.46996E+06       270.692902   344.827968E+06      -424.861755
             2073   114.941224E+06    -57.47254E+06    -57.47236E+06      -162.470383   344.827968E+06      -502.658661
             2074   114.938992E+06   -57.475448E+06    -57.47496E+06       593.380005   344.828064E+06       297.317993
             2075   114.934696E+06   -57.480068E+06    -57.48066E+06   4.04821533E+03   344.828448E+06       573.703125
             2076   114.942976E+06    -57.47126E+06   -57.471624E+06       42.0752106   344.827904E+06      -171.294159
             2077   114.948328E+06   -57.464476E+06   -57.466976E+06   2.75673364E+03   344.828832E+06   1.07817212E+03
             2078   114.942672E+06    -57.47156E+06   -57.470824E+06  -1.30252417E+03   344.829056E+06  -1.39754700E+03
             2079   114.944512E+06   -57.470288E+06   -57.469432E+06      -64.2429199   344.828224E+06      -54.4863815
             2080    114.94588E+06   -57.466888E+06   -57.467548E+06  -1.11235876E+03   344.825024E+06      -449.508331
             2081    114.99996E+06   -57.426068E+06    -57.42748E+06   3.73235718E+03   344.826496E+06       611.779602
             2082    114.88228E+06   -57.520148E+06   -57.522556E+06       555.562378   344.825504E+06   1.05209253E+03
             2083   114.950456E+06   -57.466404E+06   -57.465704E+06      -218.235275   344.826656E+06   1.69526318E+03
             2084   114.942712E+06   -57.472404E+06   -57.472076E+06       59.7257996   344.826432E+06      -609.580261
             2085   114.942672E+06   -57.471032E+06    -57.47092E+06      -82.3912277   344.827744E+06      -15.5354853
             2086   114.940984E+06     -57.4691E+06   -57.472096E+06      -404.180115   344.826816E+06      -367.161865
             2087      114.944E+06   -57.469884E+06   -57.469764E+06       20.0561352   344.827808E+06       209.655838
             2088   114.945408E+06   -57.468504E+06   -57.468816E+06       260.173035   344.827872E+06       46.0794182
             2089   114.942808E+06     -57.4719E+06   -57.472768E+06       78.1879196   344.827904E+06       605.620422
             2090   114.943064E+06   -57.470144E+06   -57.469716E+06      -934.182373   344.826464E+06       583.476440
             2091   114.944408E+06   -57.468832E+06   -57.468968E+06      -849.733154   344.825568E+06      -514.268250
             2092   114.945656E+06   -57.469528E+06   -57.469464E+06       187.219849    344.82848E+06      -23.7565899
             2093     114.9758E+06   -57.444828E+06   -57.444992E+06  -4.14716113E+03   344.826336E+06      -497.635803
             2094   114.942048E+06   -57.475896E+06   -57.475968E+06       346.269318    344.82992E+06       251.498199
             2095     114.9362E+06   -57.473192E+06   -57.474008E+06       360.690826   344.827616E+06      -277.183197
             2096    114.98336E+06   -57.442192E+06   -57.442936E+06   3.17675098E+03   344.830176E+06      -276.567657
             2097   114.946256E+06   -57.468752E+06   -57.468504E+06      -166.681732   344.827776E+06       197.566345
             2098   114.942256E+06   -57.472416E+06   -57.472356E+06      -19.2957363   344.828736E+06      -22.5139790
             2099   114.938232E+06   -57.476196E+06   -57.473944E+06   1.73845544E+03   344.828576E+06       33.2396049
             2100   114.948496E+06   -57.463584E+06   -57.463496E+06   1.15750281E+03   344.824384E+06      -13.0532389
             2101   114.889504E+06     -57.5142E+06   -57.513408E+06  -4.17431592E+03   344.831712E+06      -987.244629
             2102   114.947408E+06   -57.465224E+06   -57.465256E+06   1.58021143E+03    344.82912E+06   1.59810901E+03
             2103   114.916184E+06   -57.491016E+06   -57.491384E+06       888.483459    344.82672E+06      -80.7684174
             2104   114.943768E+06    -57.47168E+06   -57.470992E+06  -1.03656287E+03   344.828416E+06      -773.837036
             2105   114.959712E+06   -57.455884E+06    -57.45776E+06   2.29442432E+03   344.827008E+06       362.405457
             2106   114.942632E+06   -57.471368E+06   -57.471384E+06       82.2321701   344.828032E+06      -21.3066292
             2107   114.943928E+06    -57.47254E+06    -57.46852E+06  -1.89032361E+03   344.827872E+06       168.338257
             2108   114.951992E+06   -57.464992E+06    -57.46562E+06  -2.96773413E+03   344.829184E+06      -213.156525
             2109   114.942872E+06     -57.4709E+06   -57.471112E+06       83.9017258    344.82784E+06      -4.49920750
             2110   114.934296E+06   -57.474736E+06   -57.477596E+06   1.64925720E+03   344.829856E+06   1.00478424E+03
             2111   114.996552E+06    -57.42714E+06   -57.428928E+06  -5.42487207E+03    344.82384E+06       43.1822968
             2112    114.95204E+06   -57.465028E+06   -57.465764E+06   1.03387561E+03   344.827392E+06      -742.301514
             2113   114.939248E+06   -57.474524E+06   -57.474536E+06      -561.422241   344.828416E+06      -70.0715179
             2114   114.943448E+06   -57.470464E+06     -57.4707E+06       179.612167   344.828064E+06       26.3557243
             2115   114.931176E+06    -57.48092E+06   -57.480228E+06      -476.179657   344.829056E+06       228.146454
             2116   114.897984E+06   -57.509284E+06   -57.508764E+06  -1.50969995E+03   344.834112E+06       847.054321
             2117   114.941576E+06    -57.47202E+06   -57.472064E+06      -54.9221802   344.828256E+06       205.370483
             2118   114.941832E+06    -57.47142E+06   -57.470876E+06   1.16582776E+03   344.828576E+06       544.088379
             2119   114.939112E+06   -57.476032E+06   -57.473792E+06      -697.414307   344.828832E+06       182.480621
             2120   114.942424E+06   -57.471956E+06   -57.472308E+06      -24.2716408   344.828224E+06       221.385162
             2121   114.933704E+06   -57.480996E+06   -57.480408E+06  -1.22978760E+03   344.830272E+06      -239.281219
             2122    114.96536E+06    -57.45034E+06   -57.450272E+06   3.07470337E+03   344.827744E+06       745.201538
             2123   114.953448E+06    -57.45648E+06   -57.458276E+06   2.33364917E+03   344.826816E+06   1.16177063E+03
             2124   114.934944E+06    -57.47816E+06   -57.477748E+06  -2.39930981E+03   344.830208E+06      -450.274170
             2125    114.90996E+06   -57.499212E+06   -57.499888E+06   2.26803638E+03   344.828768E+06      -752.998901
             2126   114.940128E+06   -57.472516E+06   -57.472944E+06      -237.451843   344.827296E+06       35.7463493
             2127   114.929528E+06   -57.481356E+06   -57.480372E+06       706.128174   344.829792E+06       648.888794
             2128   114.944296E+06   -57.470444E+06   -57.470296E+06      -145.330353   344.827872E+06      -64.7213669
             2129   114.943296E+06   -57.470888E+06   -57.470596E+06      -65.8650360      344.828E+06      -99.9235687
             2130   114.941864E+06   -57.471832E+06   -57.471512E+06       23.7946301   344.827904E+06      -222.924652
             2131    114.94304E+06   -57.470656E+06   -57.470508E+06       3.16804481    344.82768E+06      -66.7712708
             2132   114.938792E+06   -57.474236E+06   -57.474328E+06       444.004639   344.828128E+06       87.1865845
             2133   114.933648E+06   -57.478796E+06    -57.47856E+06       15.1969509    344.82656E+06      -599.550964
             2134    114.94412E+06   -57.470428E+06   -57.469864E+06      -19.8358517   344.828096E+06      -173.691071
             2135   114.948608E+06   -57.469352E+06   -57.469392E+06   1.21394482E+03    344.82768E+06      -544.658936
             2136   114.944016E+06   -57.469936E+06   -57.469956E+06      -511.058594   344.827648E+06      -99.8093872
             2137   114.947832E+06   -57.468476E+06   -57.468856E+06       628.891418     344.8288E+06       481.577789
             2138   114.949808E+06     -57.4684E+06    -57.46832E+06   2.60544067E+03   344.828992E+06      -43.8679199
             2139   114.942376E+06   -57.473136E+06    -57.47586E+06      -483.165192   344.827328E+06       784.711975
             2140   114.937584E+06   -57.477828E+06    -57.47778E+06   1.62070068E+03   344.829792E+06       338.680664
             2141    114.93644E+06   -57.476236E+06   -57.478924E+06   2.13382568E+03   344.827904E+06       204.714462
             2142     114.9512E+06   -57.462524E+06    -57.46266E+06   1.20349353E+03   344.825216E+06       461.548096
             2143   114.962496E+06   -57.456492E+06   -57.457184E+06       16.0895100   344.827488E+06  -1.06494678E+03
             2144    114.93432E+06   -57.475656E+06   -57.476436E+06  -5.86238818E+03   344.824352E+06      -979.224304
             2145   114.941888E+06   -57.472028E+06   -57.472168E+06       125.834785   344.827712E+06      -144.372086
             2146   114.944616E+06   -57.468912E+06   -57.469012E+06      -31.8391247   344.827424E+06      -20.4201164
             2147   114.943224E+06   -57.470832E+06   -57.470692E+06      -9.09770584    344.82784E+06      -103.546204
             2148   114.917568E+06   -57.492576E+06   -57.491468E+06  -2.37830078E+03   344.831872E+06       578.444275
             2149   114.923208E+06   -57.484876E+06   -57.481404E+06   4.27248584E+03   344.829888E+06       746.989868
             2150   114.940608E+06   -57.473592E+06    -57.47338E+06      -494.886597    344.82832E+06       144.627548
             2151   114.941752E+06   -57.472236E+06   -57.472432E+06      -236.277191   344.827808E+06      -214.845795
             2152    114.94292E+06   -57.470948E+06   -57.471276E+06       37.9821968   344.827904E+06      -103.936356
             2153   114.948336E+06   -57.465944E+06   -57.465964E+06      -813.970947   344.826944E+06      -17.5847225
             2154   114.942184E+06   -57.470872E+06   -57.469932E+06      -625.514038   344.824736E+06       360.217560
             2155   114.941848E+06   -57.472912E+06   -57.474256E+06  -2.08497778E+03   344.828512E+06      -828.712402
             2156    114.96808E+06   -57.456444E+06   -57.456156E+06  -1.43233301E+03    344.82816E+06  -1.72980286E+03
             2157   114.941656E+06   -57.472228E+06   -57.472444E+06      -40.1275978   344.828032E+06       261.022278
             2158   114.938608E+06   -57.477204E+06   -57.478016E+06   9.48270215E+03   344.829952E+06      -242.668762
             2159    114.98472E+06   -57.439436E+06   -57.440836E+06      -785.427063   344.827232E+06   1.16570959E+03
             2160    115.02032E+06   -57.411628E+06   -57.408448E+06       964.560669     344.8336E+06       625.671753
             2161   114.942296E+06   -57.473132E+06     -57.4701E+06      -13.8815374   344.828416E+06      -210.820755
             2162   114.944824E+06   -57.472088E+06   -57.469596E+06      -75.1537781   344.828832E+06      -111.927719
             2163   114.939272E+06   -57.473624E+06    -57.47404E+06      -744.230957   344.827008E+06      -830.349182
             2164   114.942576E+06   -57.471544E+06   -57.471364E+06       193.713165   344.828064E+06      -31.4545612
             2165   114.940976E+06   -57.473148E+06   -57.472704E+06      -498.803009   344.828256E+06      -404.150879
             2166   114.949712E+06   -57.466724E+06   -57.463492E+06      -181.669708   344.828416E+06       261.823944
             2167    114.94236E+06   -57.471524E+06   -57.471448E+06      -63.8902855   344.828064E+06      -124.878944
             2168   114.934984E+06   -57.477996E+06   -57.478164E+06      -475.257080      344.828E+06       208.424072
             2169      114.935E+06    -57.47662E+06   -57.478548E+06       715.110474   344.827552E+06       3.13488245
             2170   114.895464E+06   -57.508668E+06   -57.507688E+06      -370.118469   344.826336E+06      -340.708954
             2171    114.94352E+06   -57.469664E+06   -57.471376E+06       807.239075   344.827168E+06      -66.9685059
             2172   114.947944E+06   -57.466252E+06   -57.466668E+06      -443.873199    344.82784E+06      -459.166565
             2173   114.943296E+06   -57.471484E+06   -57.471336E+06       191.850540   344.828256E+06       289.683044
             2174   114.942504E+06   -57.471568E+06    -57.47202E+06      -324.604156   344.827776E+06      -33.3386650
             2175   114.943096E+06   -57.471468E+06   -57.471296E+06       115.200127   344.828064E+06      -155.183014
             2176   114.942416E+06   -57.471816E+06   -57.471856E+06       63.1574860   344.828256E+06       43.0380592
             2177   114.948784E+06     -57.4633E+06   -57.464852E+06       400.887115   344.827232E+06      -68.8183975
             2178   114.943896E+06   -57.469924E+06   -57.469612E+06      -207.380783   344.827808E+06      -103.036072
             2179   114.941048E+06   -57.472128E+06   -57.472064E+06       286.043213    344.82784E+06      -348.594055
             2180   114.944416E+06   -57.469744E+06   -57.469972E+06       291.268341    344.82816E+06       499.778717
             2181    114.99828E+06   -57.421628E+06   -57.422376E+06  -2.07476587E+03   344.821344E+06   1.31359668E+03
             2182   114.942784E+06   -57.471588E+06   -57.471276E+06      -555.064026   344.827456E+06       41.1182709
             2183   114.937896E+06   -57.475048E+06   -57.475052E+06      -219.480896   344.827744E+06       213.018265
             2184   114.941664E+06   -57.471392E+06    -57.47096E+06       43.8393860   344.829184E+06   1.37951538E+03
             2185   114.939416E+06   -57.474544E+06   -57.474824E+06       949.307861   344.826944E+06   1.48737085E+03
             2186   114.940992E+06   -57.472448E+06   -57.474136E+06       98.0170441   344.827552E+06       435.253815
             2187   114.942872E+06   -57.469352E+06   -57.470528E+06      -97.3107224   344.826752E+06      -94.7558289
             2188   114.944544E+06   -57.467848E+06    -57.46772E+06   1.70722327E+03   344.825632E+06      -57.1966515
             2189   114.946712E+06   -57.469452E+06   -57.470252E+06   1.62390369E+03    344.82864E+06      -237.799789
             2190   114.970264E+06   -57.450496E+06   -57.449472E+06   2.05157349E+03   344.826656E+06       346.920166
             2191   114.949944E+06   -57.464484E+06   -57.465492E+06      -245.282745   344.827616E+06      -229.376862
             2192   114.939072E+06   -57.473852E+06   -57.475872E+06      -422.700500   344.827776E+06       465.543915
             2193   114.943768E+06   -57.469972E+06   -57.469884E+06      -72.8471146   344.827456E+06      -77.3341980
             2194   114.941592E+06   -57.472876E+06   -57.472848E+06       799.118103   344.827744E+06       669.203552
             2195   114.942128E+06   -57.470384E+06   -57.470676E+06       144.355209   344.827104E+06      -271.501007
             2196   114.945536E+06     -57.4691E+06   -57.469068E+06       832.621338   344.827904E+06       32.0319633
             2197   114.940824E+06   -57.472852E+06   -57.472992E+06       228.276886   344.828288E+06       50.7579803
             2198   114.938752E+06    -57.47516E+06   -57.476372E+06      -389.374481   344.827488E+06      -637.509705
             2199   114.921864E+06   -57.489128E+06   -57.488652E+06  -3.20409106E+03   344.830784E+06       360.222107
             2200   114.946976E+06   -57.466736E+06   -57.465592E+06      -608.114929     344.8272E+06       316.919403
             2201   114.944096E+06   -57.469904E+06    -57.46994E+06      -268.265045   344.827744E+06       19.7219181
             2202   114.945168E+06   -57.469832E+06   -57.469828E+06      -17.9656792    344.82816E+06      -176.001617
             2203   114.945896E+06   -57.468164E+06    -57.46828E+06      -470.236420   344.827264E+06      -49.0880547
             2204   114.942728E+06   -57.471164E+06   -57.471208E+06       179.252747   344.828096E+06       64.4817505
             2205    114.94324E+06    -57.47062E+06   -57.470624E+06       145.425156   344.827808E+06       43.4773026
             2206   114.947696E+06   -57.465016E+06   -57.464884E+06       783.947144   344.826272E+06       945.177795
             2207   114.967232E+06   -57.453036E+06   -57.454792E+06  -1.54611292E+03      344.828E+06       185.875687
             2208    114.93912E+06   -57.476192E+06   -57.474348E+06       669.112976   344.828128E+06       59.0087624
             2209    114.94408E+06   -57.470048E+06   -57.469424E+06       371.366394   344.827936E+06      -246.279190
             2210   114.948808E+06   -57.464216E+06   -57.466052E+06   1.46849768E+03   344.827168E+06       127.080803
             2211   114.943648E+06   -57.471072E+06   -57.469028E+06      -17.6353817   344.828448E+06  -1.02532092E+03
             2212   114.942712E+06   -57.471468E+06   -57.471852E+06       60.9145813   344.827936E+06      -179.095184
             2213   114.947696E+06   -57.465484E+06   -57.462904E+06      -446.105804   344.828416E+06       184.765442
             2214   114.918632E+06   -57.489192E+06    -57.49108E+06  -2.82377271E+03    344.82576E+06      -99.8684311
             2215   114.943768E+06    -57.46964E+06    -57.47002E+06       279.092133   344.827744E+06       125.203049
             2216     114.9438E+06   -57.472392E+06   -57.472812E+06  -1.43740356E+03    344.82816E+06       134.834274
             2217   114.940536E+06   -57.472772E+06   -57.472888E+06       102.134232   344.827968E+06      -14.6179457
             2218   114.944096E+06    -57.46966E+06    -57.46924E+06       32.0256577    344.82752E+06      -253.079697
             2219   114.938184E+06   -57.475648E+06   -57.476024E+06      -674.015686   344.829664E+06      -110.562515
             2220   114.944936E+06   -57.471856E+06    -57.47202E+06  -1.39630566E+03   344.830336E+06       61.8692360
             2221    114.94052E+06   -57.474096E+06    -57.47402E+06      -287.595001   344.829184E+06   2.14426025E+03
             2222   114.937328E+06     -57.4726E+06   -57.473852E+06  -3.47997607E+03   344.824384E+06       371.903595
             2223    114.95116E+06   -57.466284E+06    -57.46626E+06  -1.30055212E+03   344.829632E+06       75.7535934
             2224   114.943648E+06   -57.470404E+06   -57.470412E+06       352.351746   344.827744E+06       27.5612965
             2225   114.950728E+06   -57.466548E+06   -57.466652E+06  -1.38909094E+03   344.829504E+06       61.2740364
             2226   114.950328E+06    -57.46854E+06    -57.46682E+06   1.87646631E+03   344.830176E+06       622.662903
             2227   114.942032E+06    -57.47156E+06    -57.47144E+06      -3.34547162    344.82784E+06      -78.8157959
             2228   114.943648E+06   -57.470288E+06   -57.470336E+06       41.0161362    344.82768E+06       245.254166
             2229    114.93964E+06   -57.473732E+06     -57.4738E+06       299.312408   344.828096E+06       14.3502579
             2230    114.94924E+06   -57.462592E+06     -57.4637E+06      -957.358154   344.828576E+06       936.558411
             2231    114.92528E+06   -57.492336E+06   -57.490364E+06   1.77018945E+03   344.830976E+06      -105.496826
             2232   114.937104E+06   -57.476056E+06   -57.476404E+06       427.250519   344.827168E+06       98.9095612
             2233   114.930712E+06   -57.479024E+06   -57.482268E+06      -641.428101   344.825952E+06      -721.912720
             2234   114.941256E+06    -57.47176E+06   -57.472096E+06      -168.982651   344.828064E+06      -137.947189
             2235   114.942648E+06   -57.471548E+06   -57.471836E+06       254.193192   344.827968E+06       114.370575
             2236    114.93708E+06   -57.475788E+06   -57.475944E+06       232.315750    344.82768E+06       92.1435623
             2237   114.916944E+06    -57.49344E+06   -57.493548E+06  -1.79020300E+03   344.830048E+06      -481.613251
             2238   114.947464E+06   -57.467232E+06   -57.467436E+06       106.879044   344.827168E+06       58.8841324
             2239   114.945896E+06   -57.468244E+06   -57.468292E+06       5.35434675   344.827296E+06      -3.06900644
             2240   114.942424E+06    -57.47092E+06   -57.470896E+06       126.955788   344.827104E+06       17.0394459
             2241   114.942856E+06   -57.470964E+06   -57.470784E+06      -256.498535   344.827808E+06      -29.9723759
             2242   114.942368E+06   -57.471532E+06   -57.471512E+06       28.4045544   344.827968E+06      -6.89724445
             2243   114.940968E+06   -57.472592E+06   -57.472392E+06       303.117432   344.827968E+06      -237.516312
             2244   114.943744E+06   -57.471532E+06   -57.470588E+06  -1.14057153E+03   344.827104E+06      -230.070999
             2245    114.94464E+06    -57.46666E+06   -57.468652E+06  -1.15000146E+03   344.827552E+06      -804.742432
             2246     114.9434E+06   -57.470192E+06   -57.469852E+06       214.504379   344.827904E+06      -304.724548
             2247    114.94224E+06    -57.47182E+06   -57.471572E+06       12.4829760   344.828192E+06      -8.40321636
             2248   114.941592E+06   -57.472696E+06   -57.472544E+06      -395.009857   344.828352E+06      -35.5159149
             2249   114.943296E+06   -57.470756E+06   -57.470548E+06      -18.0388660      344.828E+06      -211.433792
             2250   114.974968E+06   -57.442104E+06   -57.443244E+06   1.97973108E+03   344.822464E+06      -419.069611
             2251   114.942064E+06   -57.472156E+06   -57.472196E+06       150.764069   344.827936E+06       29.5345612
             2252   114.941848E+06   -57.472304E+06   -57.472256E+06      -26.7292862   344.828256E+06       36.3461151
             2253   114.942816E+06    -57.47134E+06    -57.47136E+06      -134.222610   344.827872E+06      -222.991196
             2254    114.94276E+06   -57.471212E+06   -57.471024E+06      -53.0504570   344.828096E+06       69.7586670
             2255    114.93764E+06   -57.476752E+06   -57.476884E+06       929.825562   344.827104E+06   1.27954541E+03
             2256   114.943432E+06   -57.470484E+06   -57.470772E+06      -574.105652   344.827296E+06      -560.551636
             2257    114.94392E+06     -57.4707E+06   -57.471024E+06       58.1577530   344.827616E+06      -3.98744726
             2258   114.946136E+06   -57.468576E+06   -57.468928E+06      -728.417969   344.827296E+06      -108.968849
             2259   114.944168E+06   -57.469028E+06   -57.468244E+06      -58.3277702   344.827232E+06       24.6940613
             2260   114.946048E+06   -57.467776E+06   -57.467692E+06       251.635651   344.827168E+06       425.193970
             2261   114.942432E+06   -57.471328E+06   -57.470736E+06      -209.582245   344.827872E+06       32.6080170
             2262   114.950032E+06    -57.46552E+06   -57.466392E+06  -1.06747156E+03   344.828832E+06  -1.02631299E+03
             2263   114.933216E+06   -57.479728E+06   -57.480796E+06  -1.47498730E+03   344.827168E+06       645.007141
             2264   114.943304E+06   -57.470444E+06   -57.470472E+06      -49.4729958   344.827584E+06       5.81502485
             2265   114.942808E+06   -57.470904E+06   -57.470692E+06      -7.36264896   344.827904E+06      -29.9036636
             2266   114.946656E+06   -57.467588E+06    -57.46782E+06      -131.753586   344.826784E+06      -81.8789215
             2267    114.93408E+06    -57.48514E+06   -57.481364E+06  -2.62605786E+03   344.830816E+06       30.9884815
             2268   114.942496E+06   -57.471756E+06     -57.4719E+06       223.416840    344.82816E+06       166.747116
             2269   114.942488E+06    -57.47152E+06   -57.471488E+06      -32.3376122   344.827776E+06      -46.0859642
             2270   114.944128E+06   -57.470144E+06   -57.469604E+06       366.571625   344.827648E+06      -247.117538
             2271   114.945016E+06   -57.468448E+06   -57.467844E+06       86.3087158   344.827744E+06       71.3896332
             2272   114.942184E+06   -57.471416E+06   -57.471412E+06      -74.6830139    344.82784E+06       50.6850166
             2273   114.942904E+06   -57.470732E+06   -57.470456E+06      -67.6237564   344.827392E+06       52.2516594
             2274   114.964264E+06   -57.454444E+06   -57.455176E+06       510.021667   344.826784E+06      -435.920593
             2275   114.944504E+06     -57.4696E+06    -57.46896E+06      -102.654686   344.828192E+06       57.0122414
             2276    114.94048E+06   -57.472052E+06   -57.472588E+06      -176.606140    344.82784E+06      -99.4846802
             2277   114.950376E+06   -57.463952E+06   -57.463712E+06      -319.939911   344.826912E+06       390.999176
             2278    114.94296E+06    -57.47128E+06   -57.470984E+06      -44.6896515   344.828096E+06       46.2493210
             2279   114.941496E+06   -57.472236E+06   -57.472516E+06      -202.955399   344.828064E+06       18.0370998
             2280   114.980688E+06   -57.440312E+06   -57.440596E+06  -4.30945996E+03    344.82688E+06      -401.655548
             2281   114.947552E+06    -57.46814E+06   -57.467652E+06       106.145882    344.82784E+06      -34.7570724
             2282   114.943016E+06   -57.470712E+06     -57.4707E+06      -65.8728333   344.828128E+06      -59.6967278
             2283   114.943288E+06   -57.470816E+06    -57.47066E+06      -129.211639   344.827936E+06      -103.014061
             2284   114.943672E+06   -57.470488E+06   -57.470248E+06      -126.389511   344.827936E+06      -250.069901
             2285   114.954384E+06   -57.463196E+06   -57.465384E+06  -1.08978577E+03    344.82752E+06   1.32552429E+03
             2286    114.95076E+06   -57.464912E+06   -57.465876E+06       451.414856   344.829344E+06       12.8402023
             2287   114.941456E+06   -57.472716E+06   -57.472912E+06      -41.3362312   344.828032E+06       138.915848
             2288    114.93932E+06   -57.473468E+06    -57.47276E+06       59.3225060   344.828224E+06       279.746918
             2289    114.94352E+06   -57.470436E+06   -57.470128E+06      -51.1529846   344.827616E+06      -200.614624
             2290   114.942504E+06   -57.471452E+06    -57.47158E+06      -13.6368151   344.827776E+06      -203.254868
             2291   114.941472E+06   -57.472824E+06   -57.472236E+06      -189.641861   344.828128E+06      -195.955048
             2292    114.92544E+06   -57.487248E+06   -57.488188E+06      -678.153809   344.832096E+06       33.2482224
             2293   114.998744E+06   -57.428092E+06   -57.428664E+06   1.16834131E+03   344.821888E+06   2.24134058E+03
             2294    114.91904E+06   -57.489132E+06    -57.48924E+06   2.69850366E+03   344.827104E+06       210.170197
             2295   114.943848E+06   -57.470144E+06   -57.469844E+06      -231.353073   344.827872E+06      -99.7400665
             2296    114.96628E+06   -57.453848E+06    -57.45502E+06   3.04754614E+03   344.828224E+06      -229.961548
             2297   114.936608E+06   -57.479504E+06   -57.480676E+06      -716.984619    344.83104E+06      -327.350983
             2298   114.945312E+06    -57.46828E+06   -57.467284E+06      -879.775879    344.82784E+06  -1.06061694E+03
             2299   114.943352E+06   -57.469508E+06   -57.468836E+06   5.08680908E+03    344.82656E+06       606.533997
             2300   114.923144E+06   -57.483692E+06   -57.484988E+06      -342.279907   344.829792E+06       56.0766754
             2301   114.927088E+06   -57.492136E+06    -57.49118E+06  -1.10087085E+03   344.834144E+06       392.182800
             2302   114.911936E+06   -57.495904E+06   -57.496476E+06  -3.60491211E+03     344.8272E+06      -194.845139
             2303   114.940216E+06    -57.46928E+06   -57.469964E+06       497.246429   344.825216E+06       285.669189
             2304   114.942048E+06   -57.471724E+06   -57.471636E+06      -12.6319895   344.827712E+06       1.73099399
             2305   114.938296E+06     -57.4748E+06   -57.475156E+06      -365.456543   344.827104E+06      -790.666626
             2306   114.942104E+06   -57.471476E+06   -57.471252E+06      -84.5937958    344.82752E+06       114.906319
             2307   114.939008E+06   -57.475464E+06   -57.476328E+06  -1.04211682E+03   344.828576E+06      -680.669373
             2308   114.941136E+06   -57.475852E+06   -57.475884E+06  -4.13809912E+03   344.831168E+06      -242.984100
             2309   114.946216E+06    -57.46878E+06   -57.468468E+06       60.5761757   344.828352E+06      -147.847702
             2310   114.940704E+06   -57.472888E+06   -57.472756E+06      -308.926727   344.827616E+06       105.768097
             2311   114.938288E+06   -57.473468E+06   -57.473972E+06   1.28314978E+03     344.8264E+06      -97.3248367
             2312   114.941352E+06   -57.471908E+06   -57.472284E+06       174.177048    344.82816E+06       122.485573
             2313   114.947784E+06   -57.467444E+06   -57.466356E+06      -951.165161   344.828832E+06      -784.500610
             2314   114.949768E+06   -57.465852E+06   -57.466148E+06      -850.136475   344.827488E+06      -485.329315
             2315   114.943872E+06    -57.47006E+06   -57.470144E+06       19.4524651   344.827776E+06       7.27146626
             2316   114.950704E+06   -57.469752E+06    -57.46744E+06      -598.490112   344.828864E+06       373.374634
             2317   114.938256E+06    -57.47494E+06   -57.475136E+06      -333.481995     344.8272E+06      -823.596130
             2318    114.94588E+06   -57.468712E+06     -57.4691E+06      -182.000778   344.828032E+06      -248.637466
             2319    114.95356E+06   -57.469112E+06   -57.469288E+06   3.29593188E+03    344.83264E+06   1.08315027E+03
             2320   114.977184E+06   -57.443512E+06   -57.445492E+06   3.88460376E+03   344.825504E+06       872.228516
             2321    114.93528E+06   -57.477536E+06     -57.4773E+06      -943.756531   344.828928E+06       407.336395
             2322   114.942784E+06   -57.471384E+06   -57.471804E+06       333.136414   344.827584E+06       449.153015
             2323   114.956168E+06   -57.458548E+06   -57.458256E+06  -2.35897266E+03     344.8256E+06       140.588791
             2324   114.948096E+06   -57.467048E+06   -57.468136E+06       194.175812    344.82864E+06       99.1948700
             2325   114.942624E+06   -57.471304E+06   -57.470852E+06      -78.8128052   344.828192E+06      -120.164177
             2326    114.92532E+06   -57.481088E+06    -57.48112E+06  -1.73637830E+03   344.827488E+06       524.557312
             2327   114.943744E+06   -57.470076E+06   -57.470176E+06       79.3729782    344.82784E+06       84.1891327
             2328   114.942944E+06   -57.470972E+06   -57.470948E+06       157.579224    344.82784E+06      -9.66700649
             2329   114.943304E+06   -57.470756E+06   -57.471256E+06       9.43696976   344.827904E+06       5.53216362
             2330   114.943712E+06    -57.47014E+06   -57.470632E+06   279.926926E-03    344.82784E+06       208.011993
             2331   114.947632E+06   -57.467336E+06   -57.467336E+06       640.401794   344.827872E+06  -298.572361E-03
             2332   114.929568E+06    -57.47954E+06   -57.477508E+06       23.8868885    344.82944E+06  -1.07154163E+03
             2333    114.94656E+06   -57.465448E+06   -57.465732E+06       8.69875050    344.82416E+06      -280.737671
             2334    114.94344E+06   -57.470148E+06     -57.4702E+06       229.178070   344.827264E+06      -18.9428902
             2335   114.939328E+06   -57.474132E+06    -57.47438E+06       341.918976   344.828384E+06       308.759735
             2336   114.943936E+06   -57.470424E+06   -57.470532E+06       149.253876   344.827936E+06       103.464851
             2337   114.906288E+06   -57.500052E+06   -57.501576E+06      -443.204681    344.82896E+06      -345.748474
             2338   114.936816E+06   -57.476392E+06   -57.476664E+06      -404.783905   344.827936E+06      -494.037170
             2339   114.943024E+06   -57.470776E+06     -57.4713E+06       305.015289   344.827712E+06      -50.2742081
             2340     114.9786E+06   -57.442896E+06   -57.443536E+06   6.70672705E+03   344.826112E+06      -691.074158
             2341   114.943384E+06   -57.470792E+06   -57.471028E+06       315.559143   344.827712E+06       12.5089712
             2342   115.003496E+06     -57.4261E+06   -57.425992E+06   2.82326440E+03   344.826432E+06  -1.52543848E+03
             2343   114.916816E+06   -57.491092E+06   -57.492456E+06  -2.93588867E+03   344.827744E+06      -415.463501
             2344   114.991408E+06   -57.432744E+06   -57.433112E+06  -1.88804932E+03   344.825248E+06      -774.861694
             2345    114.94296E+06   -57.471024E+06   -57.471636E+06       109.298119   344.827872E+06      -12.5832348
             2346    114.94692E+06   -57.467148E+06   -57.466784E+06  -4.41694531E+03   344.828448E+06   1.01569995E+03
             2347   114.962072E+06   -57.459952E+06   -57.459988E+06       762.628113   344.827968E+06       873.749634
             2348    114.97856E+06   -57.434912E+06   -57.431756E+06  -1.32962012E+03   344.822176E+06       311.792847
             2349     114.9498E+06    -57.46962E+06   -57.472244E+06   4.56012598E+03   344.829536E+06       604.314453
             2350   114.942576E+06   -57.473624E+06   -57.474456E+06       442.141357    344.82864E+06       851.392456
             2351   114.948976E+06   -57.466124E+06   -57.466136E+06       376.950043   344.828192E+06      -15.9412832
             2352   114.942936E+06   -57.471548E+06   -57.470888E+06      -117.035416   344.828096E+06      -101.115791
             2353   114.937944E+06   -57.475808E+06   -57.475788E+06      -473.578918   344.827392E+06   1.98868311E+03
             2354   114.943872E+06    -57.47282E+06   -57.473828E+06  -1.30088391E+03    344.82816E+06      -877.862732
             2355   114.932656E+06   -57.480384E+06   -57.485564E+06      -844.723022   344.830304E+06       574.267090
             2356    114.94476E+06   -57.466968E+06   -57.469968E+06   2.48991504E+03     344.8256E+06       332.511078
             2357   114.930584E+06     -57.4807E+06   -57.482816E+06      -686.270752   344.826496E+06       462.157135
             2358   114.941008E+06   -57.472836E+06   -57.472836E+06       553.090149   344.828672E+06      -111.341850
             2359   114.877888E+06   -57.519996E+06   -57.516528E+06  -4.06385864E+03   344.831232E+06      -407.067322
             2360   114.942224E+06   -57.471472E+06   -57.471544E+06      -108.576065   344.828096E+06       126.869118
             2361   114.942248E+06   -57.471472E+06   -57.471728E+06      -73.2622604   344.827904E+06       160.224670
             2362   114.942984E+06   -57.470816E+06   -57.470092E+06      -133.922043   344.828128E+06       88.3223343
             2363    114.94288E+06    -57.47084E+06    -57.47102E+06       2.33135629   344.827776E+06      -23.3551483
             2364   114.942424E+06    -57.47112E+06   -57.471176E+06       19.8115177    344.82784E+06       19.3132706
             2365   114.944392E+06    -57.46966E+06   -57.469884E+06       199.281708   344.827168E+06       109.478714
             2366   114.943112E+06   -57.470968E+06   -57.470552E+06      -82.3080215    344.82816E+06      -165.111343
             2367   114.943248E+06   -57.470212E+06   -57.470268E+06      -5.24409246   344.827872E+06       29.9227066
             2368   114.940416E+06   -57.477232E+06   -57.475536E+06       947.048096   344.828736E+06  -1.30908313E+03
             2369   114.922568E+06   -57.488812E+06   -57.489832E+06  -1.49805505E+03   344.826944E+06  -1.01822174E+03
             2370    114.94296E+06    -57.47076E+06   -57.470832E+06       28.2009659   344.827904E+06       88.5194550
             2371   114.947224E+06   -57.467916E+06   -57.466808E+06      -269.074249   344.828896E+06   463.161081E-03
             2372   114.942192E+06   -57.471196E+06   -57.471872E+06       455.560455   344.827712E+06       181.132523
             2373   114.943864E+06   -57.468208E+06   -57.468292E+06      -911.510376   344.826752E+06       509.419281
             2374   114.935768E+06    -57.47678E+06   -57.476436E+06      -276.954742   344.828608E+06      -660.267700
             2375    114.95464E+06   -57.462488E+06   -57.462032E+06   2.37178735E+03   344.828288E+06       193.956009
             2376   114.950128E+06    -57.46184E+06   -57.462228E+06       928.433594   344.822144E+06       654.720093
             2377   114.943792E+06   -57.470228E+06   -57.470508E+06       684.906128   344.827488E+06       150.880051
             2378   114.935264E+06   -57.474032E+06   -57.476084E+06      -54.3263626   344.827104E+06       476.634003
             2379   114.945856E+06   -57.468852E+06   -57.468776E+06      -362.637299   344.828192E+06       120.840149
             2380   114.951376E+06   -57.464092E+06    -57.46532E+06   1.69340161E+03   344.826592E+06       85.6317062
             2381   114.947648E+06   -57.467108E+06   -57.467308E+06      -717.170898   344.826464E+06       558.513306
             2382   114.948768E+06    -57.46766E+06   -57.468564E+06  -1.55259583E+03    344.82832E+06      -76.9812012
             2383   114.974576E+06   -57.443692E+06     -57.4425E+06  -4.34372754E+03   344.827008E+06      -218.286835
             2384   114.944208E+06   -57.470048E+06    -57.47004E+06      -83.6682739   344.828096E+06      -88.0248184
             2385   114.945136E+06   -57.469372E+06   -57.469108E+06      -318.270172   344.828736E+06      -332.418854
             2386     114.9384E+06    -57.47592E+06   -57.474748E+06   1.76372119E+03   344.829888E+06      -679.990784
             2387   114.942816E+06   -57.471136E+06   -57.471248E+06       112.694313   344.828128E+06      -140.757935
             2388    114.94664E+06   -57.469144E+06   -57.468796E+06   3.09270459E+03   344.828192E+06       388.912262
             2389   114.936776E+06    -57.47824E+06   -57.477332E+06  -9.88898926E+03   344.830912E+06       83.4847946
             2390   114.943608E+06   -57.470072E+06   -57.469856E+06       93.5666504    344.82768E+06       9.51838303
             2391    114.94004E+06   -57.471696E+06   -57.472716E+06  -1.78416919E+03   344.826496E+06      -999.862183
             2392   114.941824E+06   -57.472116E+06   -57.471948E+06       26.2685566   344.828448E+06      -164.445084
             2393   114.915264E+06     -57.4889E+06   -57.488124E+06       501.950287    344.82992E+06   1.21710474E+03
             2394   114.952208E+06   -57.464808E+06   -57.465968E+06       593.302795   344.827904E+06       16.2439651
             2395   114.955336E+06   -57.459276E+06   -57.462816E+06       866.625061   344.827936E+06      -349.897095
             2396   114.945944E+06   -57.468016E+06    -57.46836E+06       519.001404   344.827776E+06      -632.505249
             2397   114.940104E+06   -57.475756E+06   -57.478096E+06       861.352905   344.828192E+06       962.980164
             2398   114.939816E+06   -57.473644E+06    -57.47364E+06   1.30382056E+03   344.828096E+06      -387.004242
             2399   114.943448E+06   -57.470604E+06   -57.470484E+06      -280.047943   344.827936E+06      -45.7440872
             2400   114.948904E+06   -57.463112E+06   -57.464028E+06   1.05367871E+03   344.824192E+06       424.220062
             2401   114.942536E+06     -57.4723E+06    -57.47212E+06      -556.991150   344.827936E+06      -166.326538
             2402   114.963504E+06   -57.451996E+06   -57.455964E+06   1.55841321E+03   344.829216E+06   2.18523389E+03
             2403   114.942376E+06   -57.471672E+06   -57.471636E+06       257.281830   344.828032E+06       32.2357597
             2404   114.943624E+06    -57.47026E+06   -57.470236E+06       79.2129364   344.827552E+06      -12.9236965
             2405   114.946328E+06   -57.470712E+06    -57.46726E+06      -355.961365   344.828768E+06       646.741394
             2406   114.943392E+06   -57.475472E+06   -57.471828E+06   3.24171460E+03   344.827744E+06  -1.22115515E+03
             2407   114.941624E+06   -57.473008E+06   -57.473092E+06       125.268768   344.828544E+06      -103.522919
             2408   114.946424E+06   -57.467132E+06   -57.463812E+06   1.51558716E+03   344.826368E+06       637.477966
             2409    114.93584E+06   -57.479324E+06     -57.4809E+06   2.40164844E+03   344.826976E+06      -885.767456
             2410   114.943344E+06   -57.474088E+06   -57.471936E+06       178.020493   344.828736E+06      -715.162476
             2411   114.939136E+06   -57.474408E+06     -57.4746E+06       252.406677   344.828096E+06       955.991699
             2412   114.934224E+06    -57.47438E+06   -57.472656E+06   1.57058264E+03   344.828416E+06   1.81571765E+03
             2413    114.94188E+06   -57.471792E+06   -57.471884E+06       4.89593124   344.827808E+06      -146.599442
             2414   114.945624E+06   -57.469384E+06   -57.468212E+06      -597.221558   344.827968E+06      -166.724167
             2415   114.945896E+06    -57.46836E+06     -57.4698E+06  -1.75739417E+03   344.828032E+06       187.183258
             2416    114.94456E+06   -57.469788E+06   -57.469184E+06       549.334961   344.827968E+06       103.209885
             2417   114.938408E+06   -57.474876E+06   -57.476776E+06      -101.910156   344.828992E+06  -1.09146765E+03
             2418   114.973848E+06   -57.444684E+06   -57.444772E+06  -2.73206738E+03   344.823296E+06       109.816833
             2419   114.968456E+06   -57.452836E+06   -57.452032E+06   1.26011731E+03   344.830432E+06       12.9537086
             2420   114.945008E+06   -57.467628E+06    -57.46816E+06   2.92197559E+03   344.825184E+06      -65.6405182
             2421   114.933112E+06   -57.484344E+06   -57.482612E+06       1.09711587   344.829024E+06  -1.04992444E+03
             2422    114.94836E+06   -57.465752E+06   -57.463968E+06      -439.300201   344.826496E+06      -7.42946100
             2423   114.944744E+06   -57.467992E+06   -57.468732E+06      -333.426849     344.8272E+06      -37.3820114
             2424   114.942408E+06   -57.469408E+06   -57.471608E+06  -2.41727612E+03   344.824224E+06      -680.399048
             2425   114.945488E+06   -57.468624E+06   -57.468308E+06       92.6248932   344.827872E+06      -220.007950
             2426   114.942384E+06   -57.471476E+06    -57.47132E+06       130.777359   344.827648E+06       28.0981045
             2427   114.942928E+06   -57.470696E+06   -57.470792E+06      -127.477257   344.827712E+06       61.8773003
             2428   114.904944E+06   -57.505516E+06   -57.506572E+06   6.19089014E+03   344.833952E+06      -417.465759
             2429   114.943344E+06   -57.470808E+06   -57.471356E+06       205.607727   344.828384E+06       454.849426
             2430    114.96384E+06     -57.4503E+06   -57.450676E+06      -954.530212   344.824256E+06      -406.923340
             2431   114.945216E+06   -57.469044E+06   -57.468672E+06       163.050705   344.827776E+06      -6.21188211
             2432    114.93636E+06    -57.47414E+06   -57.477584E+06      -378.215302   344.828416E+06       236.341156
             2433    114.93372E+06   -57.477676E+06   -57.478428E+06  -2.78642847E+03   344.828864E+06   1.94553516E+03
             2434    114.94404E+06   -57.469156E+06   -57.468884E+06      -693.832825   344.827264E+06      -685.540833
             2435   114.942944E+06   -57.470864E+06   -57.470384E+06      -118.036972   344.828128E+06      -275.440155
             2436   114.943344E+06    -57.47044E+06    -57.47042E+06       114.290718   344.827552E+06       3.36439538
             2437   114.947056E+06    -57.46812E+06   -57.466788E+06       597.162903   344.828736E+06       68.9236221
             2438   114.938352E+06   -57.475684E+06   -57.475924E+06      -479.112732    344.82832E+06   1.54530518E+03
             2439   114.944672E+06   -57.473116E+06   -57.475452E+06      -977.039124    344.82976E+06       690.906738
             2440   114.939528E+06   -57.477624E+06   -57.476464E+06       90.3590088   344.828736E+06       164.703934
             2441   114.948096E+06    -57.46948E+06   -57.469704E+06       619.538452   344.829696E+06       186.203186
             2442    114.94224E+06   -57.471532E+06   -57.471492E+06       70.8723984   344.827744E+06       11.3296146
             2443   114.955112E+06   -57.456504E+06   -57.456504E+06  -4.28558887E+03   344.824928E+06       316.797150
             2444   114.942696E+06   -57.471536E+06   -57.471512E+06       38.3703461   344.828256E+06       42.4206924
             2445   114.938984E+06   -57.475852E+06   -57.473216E+06   1.77009875E+03   344.830528E+06       108.303810
             2446   114.952224E+06   -57.461116E+06   -57.460436E+06   2.02866589E+03   344.829376E+06      -43.5350990
             2447   114.942408E+06   -57.472464E+06   -57.471884E+06       389.223114    344.82832E+06       926.627563
             2448   114.947672E+06   -57.467092E+06   -57.466932E+06       227.264404   344.827264E+06       74.3064728
             2449   114.911848E+06   -57.497424E+06   -57.495652E+06  -6.00909180E+03   344.830976E+06       549.338684
             2450   114.943568E+06   -57.470288E+06    -57.46886E+06      -219.557968   344.828608E+06      -436.593201
             2451    114.94552E+06   -57.470148E+06    -57.47094E+06       456.514954   344.827584E+06      -588.783508
             2452   114.943432E+06    -57.47076E+06   -57.470888E+06       65.8294373    344.82848E+06       113.044800
             2453   114.940744E+06   -57.473668E+06   -57.474272E+06      -340.151855   344.828512E+06      -491.404846
             2454    114.94236E+06   -57.471312E+06   -57.470064E+06       237.380600   344.828192E+06      -248.976532
             2455   114.946048E+06    -57.47038E+06   -57.471456E+06      -291.106812   344.828064E+06      -413.675476
             2456   114.945104E+06   -57.470612E+06    -57.47016E+06      -747.065796   344.828576E+06      -50.4366302
             2457   114.944152E+06   -57.471304E+06   -57.471128E+06       202.239548   344.827264E+06       420.436737
             2458   114.944504E+06   -57.470336E+06    -57.46866E+06       247.239334   344.828736E+06      -93.5101471
             2459   114.941752E+06   -57.471836E+06    -57.47162E+06       238.989700   344.827936E+06      -322.101776
             2460   114.940904E+06   -57.473104E+06    -57.47302E+06       132.789536    344.82816E+06      -120.782585
             2461   114.930928E+06     -57.4848E+06   -57.482656E+06       665.170349   344.830464E+06  -1.00158716E+03
             2462   114.951896E+06    -57.46478E+06   -57.465736E+06  -1.04556824E+03   344.828224E+06      -908.708679
             2463   114.949848E+06    -57.46684E+06   -57.466984E+06       270.754639   344.831488E+06       23.2819786
             2464   114.944992E+06   -57.468968E+06    -57.46888E+06      -505.438568   344.827392E+06       79.6550903
             2465   114.942288E+06   -57.471592E+06   -57.471424E+06       133.665924    344.82768E+06       37.9896088
             2466   114.958256E+06   -57.460384E+06   -57.459336E+06  -4.54298096E+03   344.830176E+06       200.121399
             2467   114.936712E+06   -57.481376E+06   -57.481772E+06       919.186035   344.831648E+06      -394.860321
             2468   114.943384E+06   -57.472456E+06   -57.474276E+06   1.21265332E+03    344.82832E+06      -569.286804
             2469    114.96912E+06   -57.451316E+06      -57.452E+06       749.190369   344.825952E+06      -406.957733
             2470   114.942632E+06   -57.471208E+06    -57.47134E+06       54.2911568   344.827872E+06      -73.8933640
             2471   114.942728E+06   -57.471424E+06   -57.471904E+06      -370.591736   344.828032E+06       191.815933
             2472    114.94364E+06     -57.4705E+06    -57.47052E+06      -41.8708420   344.827872E+06      -239.332016
             2473    114.94312E+06   -57.471692E+06   -57.470408E+06  -3.22945825E+03   344.830624E+06       420.428131
             2474   114.941192E+06   -57.471772E+06   -57.471784E+06       146.974136   344.828416E+06       86.7562790
             2475   114.944984E+06    -57.47114E+06   -57.471984E+06  -2.06171216E+03   344.825472E+06  -1.14821924E+03
             2476   114.933528E+06   -57.478472E+06   -57.482544E+06       557.258972   344.828608E+06       562.191956
             2477   114.941328E+06   -57.472592E+06   -57.472528E+06      -647.891541   344.828416E+06       108.711014
             2478   114.941752E+06   -57.472412E+06   -57.472196E+06       24.4972878   344.827968E+06      -24.2656574
             2479    114.94248E+06   -57.471132E+06   -57.471016E+06       755.909607   344.827392E+06      -165.264435
             2480   114.919272E+06   -57.492532E+06   -57.491788E+06  -4.22404688E+03   344.832448E+06       830.539124
             2481   114.940824E+06   -57.472892E+06   -57.472992E+06      -271.570343   344.827904E+06      -23.7673569
             2482   114.942488E+06   -57.471184E+06   -57.471452E+06      -164.600250   344.825824E+06       254.991791
             2483     114.9396E+06   -57.474632E+06   -57.474608E+06      -31.9064159   344.828288E+06      -511.548157
             2484   114.950712E+06   -57.470524E+06   -57.467824E+06   1.46670142E+03   344.831744E+06      -28.5355148
             2485   114.943352E+06   -57.470852E+06     -57.4708E+06      -177.392792   344.827712E+06      -195.047775
             2486   114.944608E+06   -57.463456E+06   -57.462956E+06       468.568726   344.821824E+06       631.162048
             2487   114.943208E+06   -57.470732E+06   -57.470756E+06      -38.9087181   344.828096E+06      -61.4861870
             2488   114.938712E+06   -57.479924E+06   -57.478884E+06   3.04981030E+03   344.829984E+06  -1.34277295E+03
             2489   114.942616E+06   -57.471192E+06     -57.4712E+06       193.557495   344.827872E+06       28.0736713
             2490   114.942176E+06   -57.471576E+06   -57.471504E+06       70.0634918   344.828032E+06       22.0058537
             2491   114.943888E+06   -57.469896E+06   -57.469852E+06       410.692871   344.827584E+06       251.219681
             2492   114.944352E+06    -57.46978E+06   -57.469492E+06       133.514084    344.82784E+06      -176.173752
             2493   114.943512E+06   -57.470616E+06   -57.470844E+06      -51.3555107   344.828064E+06       42.6723328
             2494   114.942456E+06   -57.470688E+06   -57.471032E+06      -217.428604   344.827936E+06      -136.786438
             2495   114.939664E+06    -57.47712E+06   -57.476144E+06       960.736572   344.827648E+06  -1.11099951E+03
             2496   114.942648E+06   -57.471208E+06   -57.471904E+06       41.5644875   344.828256E+06      -51.3750267
             2497    114.94236E+06   -57.471448E+06   -57.470648E+06       38.6942024   344.828416E+06       477.214478
             2498   114.944048E+06   -57.470068E+06   -57.470248E+06       127.481224    344.82784E+06       500.796356
             2499     114.9442E+06   -57.470512E+06    -57.46968E+06       40.5770836   344.828704E+06      -221.960892
             2500   114.942288E+06    -57.47158E+06   -57.471836E+06      -29.7664928   344.827936E+06       243.026138
             2501    114.94228E+06   -57.472248E+06   -57.472732E+06       441.291351   344.828576E+06       790.525208
             2502   114.940192E+06   -57.475672E+06   -57.476232E+06       310.685974   344.830816E+06      -158.509399
             2503    114.94296E+06   -57.467896E+06   -57.471264E+06   1.22607129E+03   344.828928E+06       434.953918
             2504   114.942056E+06   -57.472196E+06   -57.472296E+06      -9.57445908   344.828192E+06      -194.227814
             2505   114.943872E+06    -57.46936E+06   -57.469708E+06       583.058350   344.826752E+06       286.218048
             2506   114.945584E+06   -57.468512E+06   -57.468616E+06       154.428787   344.827712E+06       88.4441528
             2507    114.94264E+06   -57.470992E+06   -57.470424E+06       145.882874   344.828256E+06       464.118195
             2508     114.9712E+06   -57.441416E+06   -57.442568E+06  -3.20071826E+03   344.822464E+06       219.454773
             2509   114.942744E+06   -57.470844E+06   -57.471504E+06       366.896729   344.827392E+06       515.655823
             2510   114.965816E+06   -57.450188E+06   -57.448444E+06  -2.92527588E+03   344.825184E+06       620.721191
             2511   114.942856E+06   -57.470892E+06   -57.470756E+06       79.8367538   344.827904E+06      -23.8757858
             2512    114.94372E+06   -57.470032E+06   -57.470044E+06      -22.3708305   344.827904E+06       365.251953
             2513    115.00456E+06   -57.422312E+06    -57.42196E+06   2.95930005E+03   344.822976E+06  -1.40759387E+03
             2514   114.934864E+06    -57.47736E+06    -57.47642E+06       345.712372   344.827104E+06   1.08842883E+03
             2515   114.901656E+06   -57.503164E+06   -57.500124E+06   2.98063965E+03    344.83248E+06       413.629211
             2516   114.939704E+06   -57.474028E+06   -57.473932E+06      -78.5931549   344.828224E+06      -297.680542
             2517   114.942672E+06   -57.471208E+06    -57.47142E+06      -32.1443253      344.828E+06      -140.392334
             2518   114.941904E+06   -57.472904E+06    -57.47258E+06      -139.877090   344.828192E+06       224.858521
             2519   114.942408E+06   -57.470608E+06   -57.470952E+06       270.219086   344.827808E+06      -268.748535
             2520     114.9332E+06   -57.477488E+06   -57.477388E+06  -1.27852637E+03   344.826528E+06       6.85402298
             2521    114.93628E+06   -57.475604E+06   -57.473904E+06   1.50491870E+03   344.829216E+06      -706.568115
             2522   114.933792E+06   -57.477476E+06   -57.477212E+06  -1.56855225E+03   344.827936E+06      -308.941589
             2523   114.944344E+06   -57.469908E+06   -57.469768E+06       285.526855   344.827424E+06      -42.5979042
             2524   114.948704E+06   -57.466404E+06   -57.466404E+06      -333.174438   344.827616E+06      -394.823395
             2525     114.9484E+06   -57.469416E+06   -57.470152E+06       692.690002   344.830944E+06      -279.672882
             2526   114.937392E+06   -57.477012E+06   -57.476676E+06       24.5742378   344.831104E+06       644.561035
             2527   114.933312E+06   -57.483892E+06   -57.482284E+06   1.35948816E+03   344.828416E+06      -413.742981
             2528   114.956408E+06   -57.463268E+06   -57.463864E+06   2.49090820E+03   344.824352E+06   2.16590039E+03
             2529   114.943744E+06   -57.470604E+06   -57.470228E+06       493.292114    344.82784E+06       163.531509
             2530   114.942152E+06   -57.471644E+06   -57.471684E+06      -264.835815      344.828E+06       62.6825142
             2531   114.956184E+06   -57.459272E+06     -57.4606E+06  -2.93661670E+03   344.827648E+06  -1.09387366E+03
             2532   114.967304E+06    -57.45188E+06   -57.453284E+06   5.47979053E+03   344.826848E+06       553.211243
             2533   114.942776E+06   -57.470348E+06   -57.471236E+06      -227.221695   344.827808E+06      -375.759430
             2534   114.942816E+06   -57.471032E+06   -57.471216E+06       69.4968719   344.828128E+06      -122.195786
             2535   114.943376E+06   -57.470272E+06    -57.46966E+06       92.4135513   344.828064E+06      -106.668037
             2536   114.942976E+06   -57.471016E+06   -57.471068E+06       13.3047676   344.828224E+06      -226.962463
             2537   114.929984E+06    -57.48206E+06   -57.483284E+06  -1.39740125E+03   344.831104E+06       973.992859
             2538   114.945688E+06   -57.468972E+06    -57.46882E+06       471.382996    344.82848E+06       325.074829
             2539   114.934192E+06    -57.47628E+06   -57.476068E+06   6.80469824E+03   344.826112E+06       257.088348
             2540   114.942664E+06   -57.471512E+06   -57.471932E+06      -107.270607   344.828448E+06       216.906006
             2541   114.942656E+06   -57.471416E+06   -57.471624E+06       68.3377533   344.828096E+06       127.094711
             2542   114.942552E+06   -57.471272E+06   -57.471368E+06       444.104523   344.827904E+06      -167.741333
             2543    114.95072E+06    -57.46808E+06   -57.468872E+06   1.35533252E+03   344.831456E+06       253.280334
             2544   114.952624E+06   -57.461404E+06   -57.463164E+06  -2.46426123E+03   344.828256E+06       349.195251
             2545   114.944024E+06   -57.470116E+06     -57.4706E+06   4.13486963E+03      344.828E+06       212.124710
             2546    114.89712E+06   -57.502804E+06   -57.502412E+06   2.94176587E+03   344.826944E+06   1.26524377E+03
             2547   114.961464E+06   -57.453836E+06   -57.453024E+06   2.17516650E+03   344.824576E+06      -480.224274
             2548   115.015176E+06   -57.410368E+06    -57.41088E+06       821.877563    344.82352E+06       222.342270
             2549    114.94208E+06     -57.4723E+06   -57.472304E+06       223.692078    344.82816E+06       40.9052124
             2550   114.939328E+06   -57.474028E+06   -57.473616E+06       427.941986   344.828512E+06      -46.7466888
             2551   114.942728E+06   -57.471376E+06   -57.471736E+06       59.3909569   344.827872E+06       132.592957
             2552   114.950832E+06   -57.464844E+06   -57.464476E+06       624.584900   344.828064E+06      -552.732544
             2553   114.962808E+06   -57.453532E+06   -57.453756E+06   6.10336279E+03   344.825952E+06       188.949982
             2554   114.944768E+06   -57.470344E+06    -57.47026E+06  -841.552079E-03   344.828768E+06      -90.4319153
             2555   114.939808E+06    -57.47384E+06   -57.473876E+06      -350.898926    344.82816E+06      -74.3394089
             2556   114.914688E+06   -57.499896E+06   -57.499916E+06       841.553894   344.833792E+06      -768.721558
             2557   114.942864E+06   -57.472524E+06    -57.47166E+06      -213.358002   344.827744E+06      -912.090393
             2558   115.026912E+06   -57.406056E+06     -57.4082E+06   3.09815918E+03    344.82528E+06  -2.12877710E+03
             2559   114.936504E+06   -57.476816E+06   -57.477284E+06  -1.03471313E+03   344.830848E+06       576.836792
             2560    114.94436E+06   -57.470132E+06     -57.4702E+06      -330.663239   344.828224E+06       14.6057558
             2561   114.941008E+06   -57.475804E+06   -57.474604E+06      -62.8709602   344.829152E+06      -358.153687
             2562    114.94532E+06    -57.47034E+06   -57.471212E+06      -934.849792   344.828288E+06      -94.9519653
             2563   114.953472E+06   -57.457576E+06   -57.458332E+06      -298.884888   344.826336E+06   1.91153015E+03
             2564   114.936384E+06   -57.473464E+06   -57.473636E+06      -116.652283   344.825728E+06   1.06037585E+03
             2565    114.94296E+06   -57.470848E+06   -57.470796E+06       128.495605   344.828032E+06      -202.752075
             2566   114.937992E+06   -57.475476E+06    -57.47556E+06       536.698120   344.828544E+06      -54.5044708
             2567   114.943256E+06   -57.470972E+06   -57.470788E+06       284.061279   344.827904E+06       52.1293983
             2568    114.94288E+06   -57.470936E+06   -57.470708E+06       309.882050   344.827904E+06      -96.8781433
             2569   114.942528E+06     -57.4711E+06   -57.471284E+06       95.2926483   344.827872E+06      -165.603867
             2570   114.941472E+06   -57.474768E+06   -57.473428E+06  -1.57347852E+03   344.828672E+06       281.044586
             2571   114.909304E+06     -57.4964E+06    -57.49712E+06  -9.56873926E+03   344.828576E+06      -334.555389
             2572   114.944536E+06   -57.470136E+06   -57.469648E+06      -151.256180   344.827872E+06       9.53111267
             2573    114.94388E+06    -57.46998E+06   -57.469552E+06       147.187424   344.827904E+06       125.753044
             2574   114.942744E+06   -57.471004E+06   -57.470748E+06      -12.4361277   344.827904E+06      -27.5424633
             2575   114.942064E+06   -57.472432E+06    -57.47212E+06       27.5542774    344.82864E+06      -57.4025917
             2576   114.943248E+06   -57.470364E+06     -57.4703E+06       83.4900589   344.827808E+06       82.6889648
             2577   114.943264E+06    -57.47166E+06    -57.47148E+06      -295.086884   344.828576E+06      -30.0727310
             2578    114.94428E+06   -57.470136E+06   -57.470124E+06      -656.990967   344.828032E+06      -14.8582096
             2579   114.944216E+06   -57.469632E+06    -57.46962E+06       22.2693119   344.827424E+06  -973.585963E-03
             2580   114.946528E+06   -57.468164E+06   -57.466704E+06      -53.6014061     344.8288E+06      -232.202362
             2581    114.94596E+06   -57.468608E+06   -57.468504E+06      -88.6339874   344.827808E+06       72.4452362
             2582   114.945984E+06   -57.468672E+06   -57.467156E+06      -19.2367344   344.828512E+06      -55.8495064
             2583   114.945752E+06   -57.470084E+06    -57.46952E+06       226.874283   344.827552E+06       399.738708
             2584    114.94416E+06   -57.470916E+06   -57.471012E+06      -487.814056   344.828992E+06      -209.868073
             2585   114.946328E+06    -57.46758E+06   -57.466176E+06      -432.579254   344.827648E+06       911.992310
             2586   114.946992E+06   -57.467744E+06   -57.466592E+06       603.679749   344.828064E+06       589.994873
             2587   114.945264E+06   -57.469376E+06   -57.469204E+06       76.1753082   344.827904E+06       50.5946121
             2588   114.945064E+06     -57.4695E+06     -57.4689E+06       307.048828   344.828736E+06      -202.990570
             2589   114.943184E+06   -57.467588E+06   -57.467068E+06  -1.86132825E+03   344.823648E+06      -44.0114174
             2590    114.94328E+06    -57.47092E+06    -57.47324E+06   1.29747034E+03   344.828736E+06  -1.09061401E+03
             2591     114.9434E+06   -57.471052E+06   -57.471056E+06       30.7177143   344.827968E+06       140.756119
             2592   114.943512E+06   -57.470608E+06   -57.470712E+06           140.25   344.828032E+06       64.4162292
             2593   114.942072E+06   -57.471084E+06   -57.471568E+06       49.5209312    344.82736E+06       214.443649
             2594   114.941896E+06   -57.472364E+06   -57.472232E+06       136.752914   344.828096E+06      -84.9624939
             2595    114.94232E+06   -57.471452E+06   -57.471544E+06      -3.65799809      344.828E+06      -15.7221708
             2596   114.943984E+06   -57.469952E+06    -57.46974E+06       207.850418   344.827904E+06      -137.152527
             2597   114.952616E+06   -57.458424E+06   -57.459084E+06  -2.85682739E+03   344.822208E+06      -35.9869957
             2598   114.942536E+06   -57.473756E+06   -57.472144E+06  -1.06563220E+03   344.829472E+06      -103.100548
             2599   114.943784E+06   -57.470252E+06   -57.470396E+06       223.057938   344.827904E+06       61.4162560
             2600   114.942216E+06    -57.47144E+06   -57.471524E+06       56.0088196   344.827808E+06       77.1608658
             2601   114.941424E+06   -57.472592E+06   -57.472728E+06       72.0557938   344.828288E+06       61.8254814
             2602   114.939352E+06   -57.473792E+06   -57.473948E+06       468.370697   344.828032E+06       110.183434
             2603   114.943448E+06   -57.470648E+06   -57.470756E+06       140.022690   344.828256E+06       78.2577744
             2604   114.941896E+06   -57.470916E+06   -57.471756E+06      -375.422607   344.826848E+06      -728.009155
             2605   114.942064E+06   -57.471852E+06   -57.471852E+06  -201.420709E-03   344.828032E+06       201.016357
             2606   114.962944E+06   -57.456228E+06   -57.456628E+06       595.882813   344.829216E+06       22.3486023
             2607   114.947016E+06   -57.468788E+06   -57.468196E+06  -1.12087769E+03   344.828544E+06      -563.114075
             2608   114.943824E+06   -57.469992E+06    -57.46996E+06       16.1146584   344.827936E+06       372.965027
             2609   114.943152E+06   -57.470896E+06   -57.471056E+06       97.3148193   344.828224E+06       22.5720825
             2610   114.942976E+06   -57.471148E+06   -57.471288E+06       38.9293022    344.82832E+06       21.1435356
             2611   114.941896E+06   -57.471868E+06   -57.471888E+06      -32.7206688      344.828E+06      -66.5449448
             2612   114.942672E+06    -57.47108E+06   -57.471144E+06       143.477142   344.827744E+06       45.5999184
             2613   114.934056E+06    -57.47746E+06    -57.47606E+06   3.14235059E+03   344.827712E+06   1.61465149E+03
             2614   114.935136E+06   -57.474616E+06   -57.475244E+06       319.967590   344.826336E+06   1.18312024E+03
             2615   114.950872E+06   -57.461364E+06   -57.462312E+06      -505.969147   344.827008E+06       911.508728
             2616   114.940992E+06   -57.473592E+06    -57.47486E+06      -469.730499   344.828544E+06      -479.206726
             2617   114.932976E+06   -57.475856E+06   -57.476352E+06   1.47027368E+03   344.825024E+06       389.630524
             2618      114.942E+06   -57.471788E+06   -57.471852E+06       35.9255638   344.828032E+06       11.0185423
             2619   114.942344E+06     -57.4715E+06   -57.471464E+06       191.172089   344.827936E+06      -104.992706
             2620   114.943752E+06   -57.470392E+06   -57.470672E+06       94.0900879   344.827904E+06       123.753914
             2621   114.953144E+06   -57.458796E+06   -57.458944E+06  -3.31307007E+03    344.82832E+06      -28.1882038
             2622   114.943568E+06   -57.470604E+06   -57.470472E+06       70.4565201      344.828E+06      -105.093140
             2623   114.944856E+06   -57.469072E+06   -57.469144E+06      -320.845306   344.827584E+06      -37.9204330
             2624   114.943488E+06   -57.470404E+06   -57.470828E+06      -198.564041   344.827296E+06       2.12779164
             2625   114.944928E+06   -57.469204E+06   -57.468488E+06      -265.439697   344.828128E+06       32.9881325
             2626   114.943608E+06    -57.47076E+06   -57.470748E+06  -1.47356018E+03   344.828352E+06      -390.809296
             2627   114.970344E+06   -57.446792E+06     -57.4472E+06   6.02502783E+03   344.825568E+06   1.19104712E+03
             2628    114.94328E+06     -57.4707E+06    -57.47108E+06      -750.639038   344.828192E+06       59.5343552
             2629   114.951232E+06   -57.463796E+06   -57.464344E+06      -46.8614693    344.82736E+06       380.420532
             2630   114.943048E+06      -57.471E+06   -57.470804E+06       85.0708694   344.827968E+06       77.4550705
             2631   114.944024E+06    -57.47078E+06    -57.47058E+06      -70.5537643   344.827936E+06      -16.7388191
             2632   114.951728E+06   -57.468784E+06     -57.4672E+06  -1.87391858E+03   344.831648E+06  -1.85745740E+03
             2633   114.943216E+06   -57.473896E+06   -57.473828E+06  -3.23620386E+03   344.829472E+06      -332.711090
             2634   114.969936E+06   -57.453556E+06   -57.454408E+06  -1.68083374E+03   344.827744E+06  -1.86992212E+03
             2635   114.959096E+06   -57.460328E+06   -57.458928E+06   3.76997534E+03   344.829632E+06      -3.70882773
             2636   114.942608E+06   -57.470992E+06   -57.471012E+06       36.7335587    344.82768E+06       31.7362957
             2637    114.93452E+06   -57.479816E+06    -57.48092E+06  -2.32916138E+03   344.829888E+06   1.32079163E+03
             2638   114.943328E+06   -57.472084E+06   -57.470548E+06      -141.790176    344.82832E+06       558.323547
             2639   114.935096E+06   -57.467508E+06   -57.469124E+06   10.3623828E+03   344.817312E+06      -143.350922
             2640   114.939424E+06   -57.470768E+06   -57.471528E+06  -2.74587207E+03   344.825856E+06       399.638275
             2641   114.942448E+06   -57.472188E+06    -57.47184E+06       262.289307   344.827904E+06       15.3845644
             2642   114.941608E+06   -57.472704E+06   -57.470992E+06       415.900299   344.828736E+06      -737.347534
             2643   114.875968E+06     -57.5206E+06   -57.519484E+06  -7.22721631E+03   344.828704E+06  -1.54588770E+03
             2644   114.939432E+06   -57.474612E+06   -57.473188E+06       343.113129   344.826912E+06       75.1462479
             2645   114.940648E+06    -57.47302E+06   -57.473176E+06       557.140198      344.828E+06      -82.1259079
             2646    114.93844E+06   -57.472984E+06    -57.47302E+06      -838.258362    344.82784E+06      -544.883606
             2647   114.885376E+06    -57.52668E+06   -57.524388E+06      -750.951782   344.837536E+06       478.735840
             2648   114.948344E+06   -57.464996E+06    -57.46638E+06   1.57989172E+03   344.827168E+06      -689.782593
             2649   114.938912E+06   -57.474436E+06   -57.474552E+06       293.988342   344.828512E+06       148.875305
             2650   114.951464E+06   -57.465116E+06   -57.463788E+06  -1.40402844E+03   344.830048E+06      -187.944427
             2651    114.97132E+06   -57.444236E+06   -57.445236E+06  -4.56158252E+03   344.820736E+06      -558.198486
             2652    114.94132E+06    -57.47254E+06   -57.472592E+06      -119.824242   344.828256E+06      -13.5493870
             2653    114.93028E+06   -57.480612E+06   -57.480876E+06       4.7165E+03   344.827168E+06       110.709579
             2654   114.948976E+06   -57.466248E+06    -57.46634E+06      -526.300415   344.827936E+06       78.2523727
             2655     114.9526E+06   -57.462788E+06   -57.462984E+06  -2.31173242E+03   344.824992E+06       754.835754
             2656   114.949496E+06   -57.463608E+06   -57.463368E+06   1.22661462E+03   344.828608E+06   1.06644458E+03
             2657    114.94352E+06   -57.470716E+06    -57.47074E+06       173.235962   344.828096E+06      -16.3371010
             2658   114.946072E+06   -57.468408E+06   -57.469132E+06   1.82833374E+03   344.825536E+06      -681.074036
             2659   114.941568E+06    -57.47272E+06   -57.474336E+06   1.68884338E+03   344.826816E+06      -305.125031
             2660    114.95644E+06   -57.462044E+06   -57.462388E+06   2.17539526E+03   344.827072E+06      -913.779236
             2661    114.94676E+06   -57.467748E+06   -57.465912E+06   2.00810010E+03   344.829152E+06      -260.267212
             2662   114.914184E+06   -57.497384E+06   -57.496116E+06  -5.70354932E+03   344.831424E+06      -210.290619
             2663    114.94804E+06    -57.46688E+06   -57.466408E+06   2.38551196E+03   344.828384E+06       658.914001
             2664   114.945272E+06   -57.468336E+06   -57.468152E+06       232.386841   344.827136E+06       779.092834
             2665   114.974696E+06   -57.448444E+06   -57.447548E+06      -781.607056   344.827392E+06  -1.08603064E+03
             2666   114.940808E+06   -57.473364E+06   -57.475028E+06       284.628601   344.828352E+06      -211.139557
             2667   114.944216E+06   -57.469596E+06   -57.469512E+06       567.967590   344.827936E+06       51.2188110
             2668   114.929024E+06   -57.482072E+06   -57.481348E+06   1.86231433E+03   344.830016E+06  -1.42924780E+03
             2669   114.934144E+06   -57.475828E+06   -57.474408E+06   3.02835522E+03   344.831168E+06      -167.142395
             2670     114.9428E+06   -57.471172E+06   -57.471152E+06      -7.47554350   344.827968E+06      -72.7563553
             2671   114.943808E+06   -57.470576E+06   -57.470936E+06      -32.2421951   344.827776E+06      -167.203506
             2672    114.94568E+06   -57.465632E+06   -57.467604E+06      -787.352966   344.827296E+06      -816.846741
             2673   114.927472E+06   -57.486468E+06   -57.488256E+06  -1.48704785E+03   344.830528E+06       184.856888
             2674   114.942376E+06   -57.471008E+06   -57.470612E+06      -299.357269   344.828224E+06       98.7754669
             2675   114.943152E+06   -57.471284E+06   -57.471296E+06       347.870239   344.827936E+06       48.9058571
             2676   114.942384E+06   -57.471084E+06   -57.471244E+06       25.0111542    344.82832E+06       54.3471375
             2677   114.957352E+06   -57.459164E+06     -57.4588E+06      -285.209442   344.827584E+06      -102.295746
             2678    114.94384E+06   -57.468672E+06   -57.468896E+06       299.299774   344.826592E+06       188.505798
             2679   114.938624E+06   -57.474724E+06    -57.47514E+06      -345.351196   344.828672E+06       72.5585251
             2680   114.942392E+06   -57.471408E+06   -57.471432E+06       21.3934841   344.828032E+06       33.7037926
             2681    114.93556E+06   -57.477936E+06   -57.477612E+06      -720.874207   344.829312E+06       335.072906
             2682       114.94E+06   -57.473788E+06   -57.473776E+06       274.638550   344.828096E+06      -149.073212
             2683   114.932136E+06   -57.479824E+06   -57.479296E+06   2.41175928E+03   344.828192E+06      -26.5682278
             2684   114.948576E+06   -57.465872E+06   -57.463752E+06      -883.875244    344.82928E+06       658.499512
             2685   114.941136E+06   -57.472456E+06    -57.47276E+06      -16.4616852   344.828288E+06       56.1345940
             2686   114.942536E+06    -57.47184E+06   -57.472032E+06       2.42731905   344.828032E+06      -19.2116203
             2687   114.941784E+06     -57.4721E+06   -57.472112E+06       117.428238   344.827904E+06      -59.8034134
             2688   114.940328E+06   -57.472776E+06   -57.472392E+06       116.777252    344.82832E+06      -494.278778
             2689   114.946752E+06    -57.46662E+06    -57.46622E+06      -183.932053   344.827456E+06      -337.827942
             2690       114.94E+06   -57.473316E+06      -57.474E+06       278.876709   344.827744E+06       536.556824
             2691   114.944168E+06   -57.469596E+06     -57.4695E+06       15.0124826   344.827264E+06      -31.4689083
             2692    114.94288E+06   -57.470896E+06   -57.471072E+06      -7.98406219   344.827936E+06      -43.7496452
             2693   114.945792E+06   -57.468164E+06   -57.467232E+06      -337.140167   344.827488E+06      -267.502045
             2694   114.944968E+06   -57.469352E+06   -57.469448E+06       227.394592   344.828096E+06       86.5060730
             2695   114.945016E+06   -57.469176E+06    -57.46918E+06       273.395721   344.828128E+06       194.901733
             2696   114.972088E+06   -57.446572E+06   -57.445828E+06   3.66460400E+03   344.824736E+06       244.508072
             2697   114.941568E+06    -57.47202E+06    -57.47272E+06      -189.512924   344.829408E+06      -42.9783897
             2698   114.943472E+06   -57.470932E+06   -57.471096E+06      -40.5680199   344.828096E+06      -44.2165833
             2699    114.94456E+06    -57.46994E+06   -57.469916E+06       80.4712753   344.827776E+06      -49.3515472
             2700   114.940824E+06   -57.473068E+06    -57.47316E+06       227.413788   344.828576E+06       174.436844
             2701   114.944968E+06   -57.473392E+06   -57.473268E+06  -1.97375842E+03   344.830432E+06      -622.643311
             2702   114.943128E+06   -57.470728E+06   -57.470416E+06      -27.7384548   344.828032E+06       198.315567
             2703   114.947056E+06   -57.464296E+06   -57.466712E+06   1.53142529E+03    344.82752E+06       780.557800
             2704    114.93768E+06   -57.477808E+06   -57.477456E+06      -745.309631   344.831392E+06       206.605301
             2705   114.942856E+06   -57.470968E+06   -57.471028E+06       74.4691162   344.827808E+06       44.1448936
             2706   114.941592E+06   -57.471492E+06    -57.47216E+06      -160.772125   344.827584E+06       134.656631
             2707    114.94376E+06   -57.470192E+06   -57.469468E+06       360.271149   344.827712E+06       52.6331787
             2708   114.937424E+06   -57.474768E+06   -57.475712E+06  -2.69922681E+03   344.826016E+06       158.464005
             2709   114.949104E+06   -57.463448E+06   -57.466548E+06   1.16803748E+03   344.828096E+06       47.2660637
             2710    114.93756E+06   -57.475948E+06   -57.477092E+06      -533.137390   344.828928E+06       257.186188
             2711    114.93808E+06    -57.47424E+06    -57.47456E+06       277.450806   344.827616E+06      -130.851410
             2712   114.938872E+06    -57.47852E+06   -57.478228E+06       384.338776   344.829632E+06   1.28996094E+03
             2713   114.942808E+06   -57.470992E+06    -57.47322E+06       48.2541809   344.827968E+06      -211.560059
             2714   114.949496E+06     -57.4681E+06   -57.468624E+06      -357.970856   344.828896E+06      -42.5427170
             2715   114.943976E+06   -57.469752E+06   -57.469432E+06       215.449554   344.827872E+06      -290.716125
             2716   114.932048E+06   -57.479808E+06   -57.480384E+06      -147.004654   344.830048E+06       408.783203
             2717   114.940944E+06   -57.469992E+06   -57.470264E+06       37.3114891    344.82432E+06      -280.522980
             2718   114.915288E+06   -57.494628E+06   -57.493464E+06  -2.21459204E+03   344.832096E+06       524.510498
             2719    115.01844E+06   -57.404864E+06   -57.405812E+06   3.02486426E+03   344.818144E+06       497.113953
             2720    114.97352E+06   -57.449748E+06   -57.449624E+06   1.84726917E+03   344.829184E+06  -1.07247607E+03
             2721   114.936336E+06    -57.48062E+06   -57.479952E+06       703.227844   344.829472E+06      -174.908432
             2722   114.959768E+06   -57.457476E+06   -57.459272E+06   3.54737354E+03   344.825856E+06      -696.281616
             2723   114.944688E+06   -57.472868E+06   -57.472828E+06   4.99239404E+03   344.826112E+06  -1.70013574E+03
             2724   114.940808E+06   -57.468952E+06   -57.469916E+06   1.33393372E+03   344.825888E+06       396.643097
             2725   114.939328E+06    -57.47298E+06   -57.473756E+06       166.605331   344.827168E+06      -294.668335
             2726   114.961264E+06   -57.452772E+06   -57.453572E+06   3.08808374E+03   344.824928E+06       328.573517
             2727   114.936064E+06   -57.477408E+06   -57.477156E+06      -144.590347    344.83008E+06      -339.210999
             2728   114.943968E+06   -57.467956E+06   -57.467668E+06  -2.85526245E+03   344.826304E+06      -336.078125
             2729   114.944096E+06   -57.470492E+06    -57.47036E+06       261.905853   344.827968E+06       72.2529373
             2730   114.981184E+06    -57.44218E+06   -57.442212E+06  -4.05412280E+03   344.828576E+06      -244.590988
             2731    114.93984E+06   -57.473496E+06   -57.473584E+06       143.382446   344.828256E+06       49.2359047
             2732   114.944488E+06   -57.469576E+06   -57.469444E+06      -237.934952   344.828032E+06      -130.947632
             2733    114.94444E+06   -57.470136E+06   -57.470128E+06       420.770508   344.828128E+06      -38.5201073
             2734   114.940488E+06   -57.472912E+06    -57.47294E+06       328.887970   344.827904E+06      -50.2731285
             2735     114.9446E+06   -57.469332E+06   -57.469092E+06       474.551880     344.8272E+06       174.187149
             2736     114.9492E+06   -57.463516E+06   -57.463364E+06   1.63493835E+03   344.824832E+06      -71.4246292
             2737   114.980184E+06   -57.440256E+06    -57.43944E+06  -4.53267676E+03   344.821568E+06       266.959839
             2738   114.943456E+06   -57.470172E+06   -57.470136E+06      -325.197723   344.827392E+06      -14.6600103
             2739   114.924816E+06   -57.484836E+06   -57.485712E+06  -2.56134888E+03   344.826752E+06      -754.124817
             2740   114.890608E+06   -57.514004E+06   -57.514348E+06      -836.377380   344.827648E+06      -769.682373
             2741   114.945072E+06   -57.469184E+06    -57.46906E+06       52.9186935   344.827264E+06       137.838409
             2742   114.941368E+06   -57.472288E+06    -57.47222E+06       473.358368   344.828096E+06       103.192535
             2743   114.924312E+06   -57.484748E+06   -57.483924E+06   5.73211523E+03    344.82672E+06       439.866241
             2744   114.982808E+06    -57.43412E+06   -57.435836E+06  -5.47075244E+03    344.82064E+06       113.246468
             2745   114.939672E+06   -57.472496E+06   -57.473452E+06   1.43653406E+03   344.826528E+06   1.65216772E+03
             2746   114.955344E+06   -57.457688E+06   -57.458488E+06  -2.66295752E+03   344.824736E+06       245.938919
             2747   114.944224E+06   -57.469604E+06   -57.469376E+06      -337.862030   344.828928E+06       830.551147
             2748    114.93864E+06   -57.474784E+06   -57.474868E+06      -600.320618   344.828256E+06      -7.04334450
             2749    114.94492E+06   -57.469752E+06   -57.469756E+06      -4.88289690   344.828224E+06      -14.6978073
             2750   114.938488E+06   -57.475036E+06   -57.477124E+06       453.831818   344.829088E+06      -476.373657
             2751   114.942712E+06   -57.470272E+06   -57.470404E+06      -397.228729    344.82736E+06      -119.013489
             2752   114.945184E+06   -57.468948E+06   -57.469332E+06       278.197937   344.828096E+06      -292.494537
             2753   114.916264E+06   -57.489616E+06   -57.489964E+06       369.839172     344.8224E+06      -912.206787
             2754   114.940976E+06   -57.472888E+06   -57.475696E+06  -2.31137695E+03    344.82928E+06       388.473206
             2755   114.945248E+06   -57.475224E+06   -57.475404E+06       299.215027   344.828704E+06  -1.71213525E+03
             2756    114.94216E+06   -57.471876E+06   -57.471944E+06      -70.6788101   344.827424E+06       25.8606014
             2757    114.94504E+06    -57.47008E+06    -57.46954E+06      -130.684250   344.828768E+06      -281.291077
             2758    114.94212E+06   -57.471904E+06   -57.471672E+06      -123.325615   344.828096E+06       12.3893309
             2759   114.944216E+06   -57.470324E+06    -57.47032E+06       286.584229   344.828256E+06      -38.1901360
             2760   114.930528E+06   -57.480092E+06   -57.479636E+06       567.793823   344.829248E+06       704.541992
             2761   114.899736E+06   -57.507008E+06   -57.506856E+06  -1.57351660E+03   344.833728E+06   1.08796777E+03
             2762   114.942648E+06   -57.471548E+06   -57.471652E+06       493.450012   344.828096E+06      -26.5725479
             2763   114.941688E+06   -57.472252E+06   -57.472112E+06      -577.500366   344.828032E+06       115.558281
             2764    114.94312E+06   -57.470368E+06   -57.470328E+06       186.024231   344.827328E+06      -1.46085382
             2765   114.988368E+06   -57.437276E+06   -57.436764E+06  -3.82909937E+03   344.826432E+06  -1.12601172E+03
             2766    114.94124E+06   -57.473992E+06    -57.47366E+06      -389.961212   344.829184E+06      -358.884308
             2767   114.940128E+06   -57.473624E+06   -57.473556E+06      -221.470947   344.828192E+06      -64.9010696
             2768   114.945056E+06    -57.46998E+06   -57.469964E+06       143.631500   344.828576E+06  -848.207057E-03
             2769   114.946272E+06   -57.468904E+06   -57.468148E+06       480.724518    344.82896E+06       357.661255
             2770    114.94692E+06   -57.468872E+06    -57.46774E+06       595.710999     344.8288E+06       144.860504
             2771   114.941976E+06    -57.47182E+06   -57.471948E+06       123.146568   344.827872E+06      -39.6133232
             2772   114.940496E+06   -57.472528E+06   -57.471392E+06       117.582626   344.828672E+06       41.4671593
             2773   114.937848E+06    -57.47496E+06   -57.475264E+06       295.915344   344.828192E+06       56.1672668
             2774   114.945992E+06   -57.467796E+06   -57.467856E+06       177.447449   344.827008E+06       16.5131588
             2775    114.98532E+06   -57.437632E+06   -57.436904E+06   2.11874121E+03   344.829696E+06       674.407959
             2776   114.929984E+06   -57.478268E+06   -57.478084E+06  -1.07784851E+03   344.824768E+06      -181.466110
             2777   114.941768E+06    -57.47014E+06   -57.471912E+06      -61.6944046   344.827296E+06      -33.5131187
             2778   114.937392E+06   -57.475812E+06   -57.474652E+06      -657.137024   344.828256E+06      -351.539001
             2779   114.941208E+06   -57.472288E+06   -57.472024E+06       211.882629   344.828064E+06      -216.324738
             2780   114.956848E+06   -57.460052E+06   -57.458168E+06       296.100616   344.829696E+06       43.9561806
             2781   114.955024E+06   -57.460916E+06     -57.4595E+06       14.9406357   344.827872E+06       77.6967697
             2782   114.926472E+06   -57.485316E+06   -57.486528E+06  -1.33785718E+03    344.83168E+06       929.662781
             2783   114.938088E+06    -57.47728E+06    -57.47686E+06      -328.329224    344.82928E+06   1.13193457E+03
             2784   114.940784E+06    -57.47236E+06   -57.472492E+06       338.636627   344.827072E+06      -277.803284
             2785   114.954736E+06   -57.462108E+06   -57.463268E+06  -1.78438403E+03   344.827872E+06   1.24860315E+03
             2786   114.942296E+06      -57.472E+06    -57.47198E+06      -56.1147118   344.828384E+06      -164.534164
             2787   114.957152E+06   -57.457636E+06    -57.45814E+06   1.46663611E+03    344.82688E+06      -915.661865
             2788   114.871688E+06    -57.53122E+06   -57.530796E+06  -1.58514478E+03   344.835552E+06       397.144501
             2789   114.943008E+06   -57.470892E+06   -57.470512E+06       50.3974190   344.827872E+06      -42.7348251
             2790   114.944016E+06   -57.470904E+06    -57.47072E+06       910.326111   344.826848E+06       340.935333
             2791   114.964288E+06   -57.450052E+06   -57.450084E+06      -359.083527   344.823072E+06      -23.0123672
             2792   114.943512E+06    -57.47036E+06   -57.470336E+06       53.6284027    344.82768E+06      -32.2772064
             2793    114.87716E+06   -57.523408E+06    -57.52314E+06  -2.47998389E+03   344.828736E+06      -505.538757
             2794   114.943872E+06   -57.469916E+06   -57.469688E+06      -69.0964279   344.827424E+06      -357.647217
             2795    114.94336E+06   -57.471148E+06   -57.471212E+06      -263.077789   344.828448E+06       30.2532654
             2796   114.944336E+06   -57.469144E+06    -57.47066E+06       725.008240   344.827296E+06      -122.377403
             2797   114.946056E+06   -57.471224E+06   -57.471468E+06   1.73927478E+03   344.830208E+06       642.376099
             2798    114.94264E+06   -57.471632E+06   -57.471216E+06       6.56602049   344.828064E+06      -99.6904984
             2799   114.943272E+06   -57.470892E+06   -57.470472E+06       52.0086250   344.828032E+06      -180.536118
             2800     114.9002E+06   -57.506552E+06   -57.507516E+06   1.76436743E+03   344.831552E+06       18.4734669
             2801   114.943464E+06   -57.470572E+06   -57.470788E+06       50.8853416   344.827808E+06       13.5324879
             2802   114.938552E+06   -57.474124E+06   -57.475836E+06  -1.40881006E+03   344.828608E+06      -150.639526
             2803   114.948048E+06   -57.468492E+06   -57.469416E+06      -363.492767   344.829184E+06       291.316345
             2804   114.946656E+06   -57.467924E+06   -57.467536E+06      -394.890930   344.827584E+06       55.9634628
             2805   114.946848E+06   -57.468704E+06   -57.468064E+06      -785.127625   344.826976E+06      -153.426056
             2806    114.91992E+06   -57.491792E+06   -57.491112E+06   5.58907471E+03    344.83184E+06       316.917175
             2807   114.943296E+06   -57.470924E+06   -57.470972E+06       100.713745   344.828128E+06       27.2945557
             2808   114.946968E+06   -57.467524E+06    -57.46756E+06       341.705719   344.827584E+06      -17.8506432
             2809   114.946144E+06   -57.467244E+06   -57.466668E+06       125.879807   344.826656E+06       761.700500
             2810   114.942984E+06   -57.470776E+06   -57.471132E+06      -397.094269   344.828128E+06       95.0605164
             2811   114.901984E+06   -57.503952E+06   -57.502996E+06       157.912247   344.826432E+06       388.012634
             2812   115.015224E+06   -57.409356E+06    -57.41104E+06     -4.88825E+03    344.82016E+06      -912.281433
             2813   114.918744E+06   -57.488328E+06   -57.483372E+06   2.95693530E+03   344.831264E+06       10.5687160
             2814   114.940832E+06   -57.473528E+06   -57.473404E+06      -104.002441   344.828544E+06       273.012268
             2815   114.948464E+06   -57.467284E+06   -57.466604E+06       23.1723614     344.8272E+06       61.9731941
             2816   114.942152E+06   -57.471896E+06   -57.471636E+06      -62.6670761   344.827808E+06       126.439102
             2817   114.943288E+06   -57.470268E+06   -57.470564E+06       162.693848    344.82784E+06      -1.49177885
             2818   114.910136E+06   -57.500308E+06    -57.50034E+06   11.0409482E+03   344.832064E+06      -23.5334721
             2819   114.944856E+06   -57.470092E+06   -57.470108E+06       183.851273   344.828576E+06   878.656924E-03
             2820    114.93916E+06   -57.470824E+06   -57.472196E+06  -1.31896863E+03   344.825728E+06       51.9966354
             2821   114.939288E+06   -57.478616E+06   -57.478832E+06   4.93084766E+03   344.833216E+06       60.4246063
             2822   114.947528E+06   -57.473956E+06   -57.475092E+06   1.60277136E+03   344.833248E+06   1.12343286E+03
             2823   114.944024E+06   -57.469752E+06    -57.46982E+06       196.699738    344.82752E+06      -399.249146
             2824     114.9516E+06    -57.46294E+06   -57.462368E+06  -1.47945203E+03   344.828448E+06       610.336548
             2825   114.950424E+06   -57.460372E+06   -57.460476E+06       13.2805481   344.826592E+06   1.01903210E+03
             2826    114.94244E+06    -57.47216E+06      -57.472E+06      -4.32918215   344.828288E+06       146.780350
             2827   114.949376E+06    -57.46334E+06    -57.46434E+06       98.9839859   344.826304E+06       478.064178
             2828   114.941944E+06   -57.471896E+06   -57.471444E+06       169.345703   344.828128E+06       115.822411
             2829   114.939128E+06   -57.473652E+06   -57.473652E+06      -9.00177956   344.827456E+06   2.72360351E-03
             2830   114.910672E+06   -57.495364E+06   -57.495632E+06  -3.05414404E+03   344.826176E+06      -249.959366
             2831   114.944104E+06   -57.471356E+06   -57.472652E+06      -503.212952   344.830112E+06  -1.07286047E+03
             2832   114.950992E+06   -57.467984E+06    -57.46806E+06       846.361511    344.82848E+06  -1.00583325E+03
             2833   114.941896E+06   -57.471696E+06   -57.471832E+06      -835.720093   344.827776E+06       197.336853
             2834   114.951528E+06     -57.4682E+06     -57.4682E+06  -2.79472168E+03   344.830336E+06      -781.857605
             2835   114.943624E+06   -57.470892E+06   -57.470732E+06       55.2512627   344.827904E+06       122.116165
             2836   114.944896E+06   -57.472956E+06    -57.47164E+06      -36.5196838    344.82832E+06      -596.148682
             2837   114.941624E+06   -57.472292E+06   -57.472892E+06      -159.638748   344.827712E+06      -48.5834503
             2838     114.9418E+06   -57.472108E+06   -57.472216E+06      -1.71641779   344.828256E+06       6.34094381
             2839   114.895824E+06   -57.509752E+06    -57.51042E+06      -27.4099464   344.831136E+06       778.077515
             2840   114.943032E+06   -57.471408E+06   -57.471404E+06      -58.9235535   344.828416E+06      -2.33274102
             2841   114.879584E+06   -57.521524E+06   -57.522196E+06  -3.18780957E+03    344.82864E+06      -313.109955
             2842   114.944256E+06   -57.469608E+06   -57.469364E+06       16.1021786    344.82768E+06      -188.240204
             2843   114.940768E+06   -57.473352E+06    -57.47368E+06      -214.807587   344.828128E+06      -21.5246143
             2844    114.94484E+06   -57.469736E+06    -57.46966E+06      -107.828255   344.828192E+06      -39.3062057
             2845   114.943456E+06     -57.4703E+06    -57.47034E+06      -142.006912   344.827936E+06      -27.9486790
             2846   114.944024E+06   -57.469808E+06   -57.469192E+06   1.12755212E+03   344.827648E+06       54.8774757
             2847    114.94176E+06   -57.472476E+06   -57.472332E+06      -422.132996    344.82816E+06       67.4308014
             2848   114.944544E+06   -57.469776E+06   -57.469852E+06       357.131104   344.827968E+06      -2.76333952
             2849   114.942496E+06   -57.471628E+06   -57.471556E+06      -58.7907639   344.827968E+06       290.483215
             2850   114.942184E+06   -57.471272E+06   -57.470916E+06       348.654480      344.828E+06       55.0664558
             2851   114.942912E+06   -57.470988E+06   -57.471392E+06      -85.8326797   344.827776E+06      -189.371933
             2852   114.943256E+06   -57.470608E+06   -57.469768E+06       164.839218      344.828E+06      -380.250122
             2853   114.893208E+06   -57.517004E+06   -57.517724E+06      -309.796936   344.834656E+06      -433.314026
             2854   114.927984E+06   -57.481984E+06   -57.482764E+06   2.46546240E+03   344.826144E+06      -113.199898
             2855     114.9426E+06   -57.471412E+06   -57.471644E+06       323.893616   344.828224E+06       304.898071
             2856   114.940208E+06   -57.472856E+06   -57.472628E+06      -96.9805298   344.827296E+06      -70.0902786
             2857    114.94192E+06   -57.471816E+06   -57.471528E+06       8.36075115    344.82816E+06       220.731659
             2858    114.94412E+06   -57.470088E+06    -57.46994E+06      -102.851181   344.827776E+06       178.251663
             2859   114.948424E+06   -57.470608E+06   -57.473396E+06   4.43999365E+03    344.82944E+06       568.325012
             2860   114.947352E+06   -57.465252E+06   -57.464772E+06      -69.3221741    344.82688E+06       40.1618500
             2861   114.941584E+06   -57.472412E+06   -57.472596E+06      -153.649506   344.827264E+06      -103.010948
             2862    114.93524E+06   -57.477964E+06      -57.478E+06      -128.888214   344.829088E+06      -67.3775101
             2863    114.94552E+06   -57.468684E+06   -57.469088E+06      -299.335052   344.827104E+06      -156.528259
             2864   114.942152E+06     -57.4722E+06   -57.472376E+06      -204.439453   344.827424E+06       85.9658051
             2865   114.924464E+06    -57.48892E+06    -57.48888E+06   2.35197266E+03   344.831328E+06      -524.855591
             2866   114.942632E+06   -57.471156E+06    -57.47092E+06      -136.200455   344.827936E+06       76.3307190
             2867   114.938624E+06     -57.4743E+06    -57.47416E+06       315.489929      344.828E+06      -279.858307
             2868   114.941568E+06   -57.472228E+06   -57.472016E+06       268.373688      344.828E+06       73.4949722
             2869   114.893888E+06   -57.513716E+06   -57.512668E+06  -6.32508350E+03   344.834624E+06   1.08886316E+03
             2870   114.971832E+06    -57.45004E+06   -57.451816E+06   2.63824902E+03   344.825216E+06       131.192749
             2871   114.939792E+06   -57.475464E+06   -57.474788E+06       198.181442   344.828192E+06      -64.2293472
             2872     114.9432E+06   -57.471548E+06    -57.47124E+06      -631.810120   344.827232E+06      -375.965942
             2873   114.939744E+06   -57.476272E+06   -57.477084E+06   9.50466113E+03    344.82992E+06      -237.824448
             2874   114.943488E+06   -57.470124E+06   -57.470192E+06       23.1451778   344.827712E+06      -411.219299
             2875   114.942304E+06    -57.47162E+06   -57.471388E+06       39.2925911   344.827904E+06      -108.345490
             2876   114.965048E+06   -57.456468E+06   -57.456624E+06       412.970612   344.827936E+06  -1.01406781E+03
             2877   114.940608E+06    -57.47374E+06    -57.47022E+06  -1.03712378E+03   344.827968E+06  -1.02471021E+03
             2878   114.944512E+06   -57.469432E+06   -57.470052E+06       957.515137   344.828384E+06  -1.75494373E+03
             2879    114.92284E+06   -57.489648E+06   -57.489456E+06  -2.79037939E+03   344.833888E+06       851.955811
             2880   114.945912E+06   -57.468052E+06    -57.46904E+06       463.498627   344.827136E+06       876.134827
             2881    114.94268E+06    -57.47136E+06   -57.471356E+06       28.4176674   344.827936E+06      -149.999802
             2882   114.935688E+06   -57.476316E+06    -57.47644E+06      -811.928467   344.826304E+06      -508.598480
             2883   114.944704E+06     -57.4691E+06   -57.468584E+06       195.960388   344.827744E+06      -57.9070702
             2884   114.943976E+06    -57.47032E+06   -57.470404E+06      -81.5042572    344.82816E+06       14.1430750
             2885   114.941224E+06   -57.472072E+06    -57.47232E+06      -14.9276352   344.827776E+06      -17.7954559
             2886     114.9426E+06   -57.473316E+06   -57.473736E+06       398.275665   344.829504E+06      -498.869690
             2887   114.943064E+06   -57.470156E+06   -57.469996E+06      -113.607162   344.827232E+06      -226.871338
             2888   114.942648E+06   -57.471436E+06    -57.47122E+06       64.3316269   344.828064E+06       267.437744
             2889    114.94436E+06   -57.467364E+06   -57.469228E+06  -1.01861609E+03    344.82736E+06      -395.842957
             2890   114.941072E+06   -57.473836E+06   -57.473944E+06       125.812759   344.828384E+06      -440.414948
             2891   114.945488E+06   -57.469144E+06   -57.469056E+06      -174.916245    344.82784E+06   151.787907E-03
             2892   114.941744E+06   -57.473564E+06    -57.47382E+06      -748.527893    344.82672E+06      -866.875183
             2893   114.940416E+06   -57.475292E+06    -57.47618E+06       71.1970139   344.827968E+06      -816.963013
             2894   114.942264E+06   -57.471568E+06   -57.471864E+06      -455.757965    344.82784E+06       44.2516708
             2895   114.941232E+06   -57.469024E+06   -57.470192E+06  -1.33787170E+03    344.82688E+06      -724.988953
             2896   114.943256E+06    -57.47068E+06   -57.470452E+06       35.5769577   344.827904E+06      -27.1237278
             2897   114.941176E+06   -57.471752E+06   -57.472148E+06       229.735870   344.827072E+06      -345.571442
             2898   114.948048E+06    -57.46728E+06    -57.46692E+06       532.678772   344.828128E+06       324.176147
             2899   114.943272E+06   -57.470304E+06   -57.469424E+06  -1.38439709E+03   344.828768E+06      -928.088928
             2900    114.94416E+06   -57.469284E+06      -57.469E+06      -33.2260704   344.827936E+06      -381.806335
             2901   114.943528E+06   -57.470532E+06     -57.4707E+06       77.1852188    344.82816E+06       29.7038612
             2902   114.942448E+06   -57.471552E+06    -57.47146E+06       80.5864182   344.827872E+06       1.72668874
             2903    114.96856E+06   -57.448856E+06   -57.448712E+06       323.458344   344.822912E+06      -318.115387
             2904   114.943696E+06     -57.4704E+06   -57.469656E+06      -236.827988   344.826272E+06  -1.76150024E+03
             2905   114.925248E+06   -57.486624E+06   -57.486052E+06   1.62355298E+03   344.829632E+06      -768.391357
             2906   114.944352E+06   -57.469116E+06   -57.468752E+06       213.564438   344.827744E+06      -190.350082
             2907   114.944016E+06   -57.468024E+06   -57.467348E+06      -949.941406   344.826336E+06       293.718018
             2908   114.942232E+06   -57.471824E+06   -57.471996E+06      -138.112488   344.828032E+06       96.8842468
             2909    114.93728E+06    -57.48258E+06   -57.485692E+06      -488.988525   344.832064E+06       750.537354
             2910    114.94752E+06    -57.46648E+06   -57.466052E+06  -1.58378455E+03   344.827968E+06      -181.100677
             2911    114.94436E+06   -57.470176E+06   -57.469852E+06      -560.445129   344.828192E+06       95.2681808
             2912   114.970232E+06   -57.444308E+06   -57.445804E+06  -2.74388818E+03   344.820032E+06       122.922012
             2913   114.957576E+06   -57.456488E+06   -57.458096E+06  -3.90920020E+03   344.822432E+06       193.654770
             2914   114.945752E+06   -57.469212E+06   -57.468948E+06       55.8260918   344.827616E+06       51.4070663
             2915   114.943552E+06    -57.47078E+06   -57.470524E+06      -122.521301   344.827968E+06      -41.5535851
             2916   114.941496E+06   -57.472464E+06   -57.472448E+06      -92.2488785   344.828448E+06      -178.316742
             2917   114.935448E+06   -57.478108E+06     -57.4781E+06   1.26902466E+03   344.827776E+06       842.703552
             2918    114.94676E+06    -57.46826E+06   -57.466984E+06      -278.239044   344.828576E+06       302.963501
             2919   114.942432E+06   -57.472344E+06   -57.473172E+06       80.1281128    344.82816E+06       167.960617
             2920   114.947112E+06   -57.469292E+06   -57.468452E+06      -589.083252   344.827616E+06       366.644897
             2921   114.943064E+06   -57.471352E+06   -57.471224E+06       212.664032    344.82864E+06       189.873108
             2922   114.931632E+06     -57.4837E+06   -57.481416E+06   2.13712207E+03   344.828864E+06      -228.073410
             2923   114.964032E+06   -57.446852E+06    -57.44508E+06      -864.020996   344.820352E+06      -968.181824
             2924   114.942984E+06   -57.471552E+06   -57.471928E+06       38.8529892   344.828224E+06       206.030319
             2925     114.9424E+06   -57.471176E+06   -57.471712E+06      -9.05425644   344.827744E+06       70.4813919
             2926    114.94524E+06   -57.468236E+06   -57.468452E+06   1.41720459E+03   344.827488E+06       704.893250
             2927   114.946448E+06    -57.46712E+06   -57.466804E+06   1.69470715E+03    344.82816E+06       922.167542
             2928   114.905672E+06   -57.502812E+06   -57.501064E+06   3.80294165E+03   344.834016E+06  -1.03148181E+03
             2929   114.935112E+06   -57.473812E+06   -57.474804E+06  -1.32995044E+03   344.827552E+06      -318.169342
             2930   114.928792E+06   -57.488228E+06    -57.48738E+06  -1.71493945E+03   344.833184E+06       89.6563187
             2931   114.881208E+06   -57.520888E+06   -57.524168E+06  -3.18969897E+03    344.83472E+06      -838.929260
             2932    114.90624E+06   -57.505036E+06   -57.509668E+06      -883.037415   344.835008E+06       57.7548561
             2933   114.944096E+06   -57.470524E+06   -57.470332E+06       138.425766   344.828032E+06      -55.3714676
             2934   114.941432E+06   -57.472152E+06   -57.472136E+06        -596.0625      344.828E+06       54.2282028
             2935   114.939816E+06   -57.472916E+06   -57.473412E+06       376.200104   344.827456E+06       133.555344
             2936   114.925712E+06     -57.4801E+06   -57.481812E+06       954.455994   344.827456E+06   1.33253357E+03
             2937   114.943224E+06    -57.47148E+06   -57.471332E+06      -138.062515    344.82784E+06       31.5695724
             2938       114.95E+06   -57.466364E+06   -57.467188E+06      -728.033875   344.827008E+06   1.10585669E+03
             2939   114.916872E+06    -57.49004E+06     -57.4904E+06   6.41846143E+03   344.827712E+06       857.149963
             2940   114.924944E+06   -57.488336E+06   -57.489396E+06  -6.57016016E+03   344.829088E+06       212.154221
             2941   114.933736E+06   -57.477956E+06   -57.475208E+06       956.416748    344.82656E+06   1.59039172E+03
             2942   114.939984E+06   -57.473544E+06    -57.47356E+06       98.8951340   344.827776E+06       120.817406
             2943   114.942704E+06    -57.47158E+06   -57.471108E+06      -15.7947998   344.828256E+06       292.271271
             2944    114.94568E+06   -57.468192E+06   -57.468404E+06       243.717514    344.82704E+06      -210.314026
             2945   114.924576E+06   -57.487472E+06   -57.486192E+06      -886.676331   344.828512E+06       372.825378
             2946   114.941912E+06   -57.472016E+06   -57.471764E+06       41.6849060   344.828128E+06       213.609756
             2947   114.941336E+06   -57.472932E+06    -57.47314E+06      -86.7796326   344.828544E+06      -88.2074432
             2948   114.943616E+06   -57.470616E+06   -57.470768E+06       54.2096786    344.82784E+06      -9.96322823
             2949    114.94584E+06   -57.469188E+06   -57.468732E+06       380.109528   344.827872E+06      -157.625412
             2950   114.940808E+06   -57.473104E+06   -57.473116E+06      -399.334717   344.827776E+06      -332.181488
             2951   114.941936E+06   -57.471472E+06   -57.471448E+06      -139.022568      344.828E+06      -379.835419
             2952   114.941776E+06   -57.472124E+06   -57.472236E+06      -11.0824947   344.828096E+06       160.987869
             2953   114.941816E+06    -57.47216E+06   -57.472388E+06      -48.8859253   344.827936E+06       43.6322365
             2954   114.919384E+06   -57.487488E+06    -57.48686E+06       272.857239    344.82992E+06       767.449036
             2955   114.943704E+06   -57.470432E+06   -57.470688E+06       33.2920685   344.827872E+06      -19.3221817
             2956   114.944248E+06   -57.473704E+06   -57.471828E+06       737.664246   344.828672E+06      -493.642242
             2957   114.943256E+06   -57.470744E+06    -57.47094E+06      -226.432312   344.828224E+06       307.834961
             2958   114.944096E+06   -57.469944E+06   -57.470016E+06       271.826416   344.827968E+06       133.012558
             2959   114.943352E+06    -57.47076E+06   -57.470728E+06      -251.429016    344.82816E+06      -22.7939014
             2960   114.940104E+06   -57.472984E+06   -57.473564E+06      -162.816895   344.828096E+06       286.736237
             2961   114.941056E+06   -57.474848E+06    -57.47494E+06       99.9158859   344.827424E+06      -306.632935
             2962    114.94444E+06   -57.469964E+06   -57.469552E+06       209.109619   344.827392E+06      -190.720642
             2963   114.941968E+06   -57.471096E+06   -57.472236E+06       886.177063   344.827936E+06       594.263550
             2964   114.946896E+06   -57.467848E+06   -57.467476E+06       58.9327393   344.827232E+06      -178.318375
             2965   114.935624E+06    -57.47716E+06     -57.4746E+06  -4.62713965E+03   344.825824E+06      -181.055481
             2966   114.942184E+06    -57.47108E+06   -57.471024E+06       164.093811   344.828224E+06       18.1289711
             2967   114.943848E+06   -57.470368E+06   -57.471004E+06      -121.481369   344.827968E+06      -370.551697
             2968   114.918272E+06   -57.489012E+06   -57.488884E+06      -95.0881119   344.826272E+06       103.017448
             2969   114.943984E+06     -57.4692E+06   -57.469784E+06       92.9599533      344.828E+06      -324.249390
             2970   114.939392E+06   -57.476364E+06   -57.475804E+06  -2.64700342E+03    344.82656E+06  -1.09705457E+03
             2971   114.941056E+06   -57.472124E+06   -57.472456E+06      -48.3053055   344.828128E+06       35.8469925
             2972   114.943672E+06     -57.4702E+06     -57.4708E+06      -454.761108   344.827424E+06      -187.326050
             2973   114.941336E+06   -57.471068E+06   -57.472156E+06      -715.259705   344.828192E+06   1.21454700E+03
             2974   114.940608E+06   -57.474768E+06   -57.472432E+06       574.358643   344.828192E+06      -44.7525711
             2975   114.929472E+06   -57.477832E+06   -57.475764E+06  -2.35611499E+03    344.82736E+06       409.856659
             2976    114.94304E+06   -57.470928E+06   -57.471452E+06       156.298859   344.828064E+06       22.4525490
             2977   114.945816E+06   -57.469148E+06   -57.468888E+06      -179.931137   344.827872E+06       191.365128
             2978   114.933256E+06   -57.481464E+06   -57.480512E+06       105.628555    344.82832E+06       56.6706963
             2979   114.938728E+06   -57.475248E+06     -57.4755E+06       71.7967758   344.828384E+06      -252.400742
             2980   114.943488E+06   -57.469988E+06       -57.47E+06       17.5109901   344.827872E+06       22.8342113
             2981     114.9422E+06   -57.471852E+06   -57.472552E+06       115.912476    344.82736E+06      -482.988068
             2982   114.948448E+06   -57.466996E+06   -57.465884E+06  -1.32084229E+03   344.826688E+06      -393.590271
             2983   114.943224E+06   -57.470988E+06   -57.471024E+06       107.018738   344.827936E+06      -15.9880066
             2984   114.951248E+06   -57.469408E+06   -57.466456E+06   1.23339844E+03   344.831008E+06      -143.140640
             2985   114.943608E+06   -57.470348E+06   -57.470608E+06       150.549591   344.827872E+06       59.6009178
             2986   114.943936E+06   -57.469936E+06    -57.46942E+06      -475.880829   344.828032E+06      -260.392944
             2987    114.94624E+06   -57.468716E+06   -57.469804E+06       182.172134   344.827712E+06       39.7792854
             2988   114.946816E+06   -57.467824E+06   -57.467708E+06      -490.699097   344.828064E+06       434.740540
             2989   114.939464E+06   -57.475164E+06   -57.476028E+06       629.576172   344.827744E+06      -610.684875
             2990   114.940776E+06   -57.468948E+06    -57.47034E+06       696.029053   344.827136E+06      -166.281982
             2991   114.914056E+06   -57.497672E+06     -57.4971E+06   1.15937280E+03   344.832704E+06       272.138702
             2992   114.944936E+06   -57.468696E+06   -57.468564E+06       25.3249035   344.827584E+06       98.5185242
             2993   114.945824E+06   -57.468464E+06   -57.468316E+06       47.9260521   344.827584E+06       254.757233
             2994   114.949184E+06    -57.46568E+06   -57.465696E+06       104.888000   344.826976E+06      -302.298950
             2995   114.939256E+06   -57.473548E+06   -57.473856E+06       149.017334    344.82752E+06      -145.547928
             2996   114.943728E+06   -57.470268E+06   -57.470272E+06      -91.3917313   344.827808E+06       182.018250
             2997   114.942816E+06   -57.470988E+06   -57.470976E+06      -12.1251240   344.828032E+06      -201.908752
             2998   114.946824E+06   -57.468344E+06   -57.467652E+06      -963.322815     344.8288E+06      -703.289490
             2999    114.94996E+06    -57.46318E+06    -57.46314E+06  -1.26753943E+03    344.82672E+06       554.120056
             3000   114.943344E+06    -57.47058E+06    -57.47034E+06       243.010361   344.828224E+06       36.1656303
             3001   114.942448E+06    -57.46954E+06   -57.470244E+06       144.043396   344.827488E+06      -169.818695
             3002    114.94624E+06   -57.467516E+06   -57.467948E+06      -463.241455   344.827744E+06       58.1444206
             3003   114.942448E+06   -57.471336E+06   -57.471168E+06       11.7444582    344.82768E+06       39.1470680
             3004    114.94644E+06   -57.467048E+06   -57.467816E+06      -198.865860    344.82688E+06      -336.713257
             3005   114.943568E+06    -57.47016E+06   -57.470248E+06      -90.0469818   344.827936E+06       47.0978622
             3006    114.94252E+06   -57.471024E+06   -57.471164E+06       74.9609909   344.827808E+06       43.8956604
             3007   114.924144E+06   -57.489324E+06   -57.488812E+06   3.40344312E+03   344.830432E+06       369.066559
             3008   114.941336E+06   -57.472196E+06   -57.472024E+06       415.537628   344.828448E+06       424.914673
             3009   114.942928E+06   -57.470792E+06   -57.470744E+06       42.6307716   344.827712E+06       113.966751
             3010   114.941264E+06   -57.472724E+06   -57.472932E+06      -447.482391   344.827936E+06      -393.672943
             3011   114.942512E+06   -57.470536E+06    -57.46968E+06       393.846466   344.828448E+06       89.6393661
             3012   114.942568E+06    -57.47134E+06   -57.471152E+06       74.1704941   344.827744E+06       29.5314617
             3013   114.933128E+06   -57.484332E+06   -57.485188E+06      -360.367981   344.832672E+06      -724.958008
             3014   114.932536E+06    -57.47944E+06   -57.478468E+06   1.61870459E+03   344.829088E+06      -383.085846
             3015   114.941824E+06     -57.4729E+06   -57.472512E+06      -388.431091   344.828512E+06      -399.674774
             3016    114.94312E+06    -57.47058E+06   -57.470212E+06       54.2345924   344.827808E+06      -17.9556618
             3017   114.942328E+06   -57.471496E+06   -57.471576E+06       9.40818024   344.827936E+06      -81.5712585
             3018   114.946248E+06    -57.46776E+06    -57.46736E+06      -260.690460    344.82752E+06      -504.092010
             3019      114.944E+06   -57.469996E+06   -57.469808E+06       114.015823   344.828288E+06       380.591705
             3020   114.941528E+06   -57.472356E+06   -57.472112E+06       164.197800    344.82832E+06      -108.457802
             3021   114.953776E+06   -57.463508E+06   -57.463104E+06  -1.30868811E+03   344.827392E+06      -989.868774
             3022   114.995688E+06   -57.429916E+06   -57.430776E+06   5.66115869E+03   344.825856E+06       367.836639
             3023   114.960576E+06   -57.455588E+06   -57.455652E+06  -1.44295203E+03   344.826528E+06       903.233521
             3024     114.9488E+06   -57.467468E+06   -57.465212E+06  -1.25943994E+03   344.828096E+06  -1.48438696E+03
             3025   114.940568E+06   -57.471896E+06    -57.47394E+06       157.612442   344.824256E+06   1.50817078E+03
             3026   114.937992E+06   -57.473488E+06   -57.476396E+06   1.54642700E+03   344.824832E+06      -566.567444
             3027   114.936576E+06   -57.481244E+06   -57.481056E+06   1.99838599E+03   344.831392E+06      -84.2464905
             3028   114.936464E+06   -57.472872E+06    -57.47228E+06  -1.24462830E+03      344.828E+06   1.25041626E+03
             3029   114.950272E+06   -57.464124E+06   -57.461888E+06       346.370148   344.825376E+06   1.63486853E+03
             3030    114.94476E+06   -57.468188E+06    -57.46814E+06      -147.372223   344.827936E+06      -343.299072
             3031   114.945104E+06    -57.46906E+06    -57.46936E+06      -187.446869   344.828096E+06      -136.606995
             3032   114.934024E+06   -57.475364E+06   -57.474728E+06  -1.09575989E+03   344.828384E+06   1.15572205E+03
             3033   114.941336E+06    -57.47226E+06   -57.473312E+06      -364.155884   344.827584E+06      -14.1072464
             3034     114.9448E+06   -57.470056E+06   -57.469972E+06       64.0212326   344.828288E+06      -37.4450455
             3035   114.941432E+06   -57.471288E+06   -57.471376E+06      -84.7158890   344.827552E+06      -107.977768
             3036      114.945E+06   -57.473024E+06   -57.472036E+06       144.249557   344.827936E+06      -763.786011
             3037   114.947992E+06   -57.466372E+06   -57.464508E+06      -139.553604   344.827136E+06       330.038788
             3038   114.945664E+06   -57.468888E+06   -57.468672E+06       32.7240181   344.827072E+06       119.955467
             3039    114.94332E+06   -57.469912E+06   -57.469216E+06       431.962402    344.82704E+06      -745.572510
             3040   115.021552E+06    -57.39788E+06   -57.395636E+06   2.91151245E+03   344.813504E+06      -552.823486
             3041   114.936144E+06   -57.475356E+06     -57.4754E+06   3.12120288E+03    344.82672E+06       658.765076
             3042     114.9422E+06   -57.472524E+06   -57.472712E+06      -475.922821   344.828032E+06      -241.633652
             3043    114.94624E+06   -57.466852E+06   -57.467908E+06       291.877350   344.827072E+06      -196.218994
             3044    114.94756E+06   -57.463644E+06   -57.464036E+06       329.923431   344.826592E+06      -128.466675
             3045   114.945096E+06     -57.4675E+06   -57.468576E+06       115.599014   344.827392E+06      -178.887650
             3046   114.938008E+06    -57.47516E+06    -57.47682E+06      -962.881592   344.829024E+06      -312.301605
             3047   114.936784E+06     -57.4755E+06   -57.475516E+06       107.452980   344.828064E+06      -15.7398787
             3048   114.935656E+06   -57.476684E+06    -57.47676E+06       73.7072220   344.827904E+06      -9.94193745
             3049   114.943336E+06   -57.468648E+06   -57.467556E+06      -282.829834   344.827776E+06   1.37458411E+03
             3050   114.927728E+06   -57.482084E+06    -57.48194E+06      -323.700958   344.825088E+06      -558.474243
             3051   114.937864E+06   -57.477196E+06   -57.475824E+06      -784.072083   344.828416E+06      -46.0995445
             3052   114.943376E+06   -57.470348E+06   -57.470048E+06      -15.4444027   344.827744E+06       55.9837761
             3053   114.939416E+06   -57.474964E+06   -57.474888E+06      -975.575378   344.829024E+06       500.636810
             3054   114.940184E+06    -57.47002E+06    -57.46862E+06  -2.75908887E+03      344.824E+06       365.886383
             3055   114.968376E+06   -57.456196E+06   -57.455712E+06  -1.45257983E+03   344.828128E+06  -1.69685864E+03
             3056    114.94316E+06   -57.470764E+06   -57.470712E+06       6.01751947   344.827968E+06       71.3779907
             3057   114.944808E+06   -57.468024E+06   -57.467848E+06   1.00796844E+03   344.824224E+06      -600.926453
             3058   114.949728E+06   -57.465504E+06   -57.465604E+06      -147.268906   344.827488E+06       109.564857
             3059   114.949184E+06    -57.46734E+06   -57.468156E+06  -1.12578528E+03   344.826848E+06      -732.576660
             3060    114.94156E+06   -57.471092E+06   -57.471164E+06      -160.155594    344.82752E+06       47.3309975
             3061   114.946288E+06   -57.466716E+06    -57.46782E+06      -11.9975424   344.827936E+06       33.4463425
             3062   114.945008E+06   -57.467756E+06    -57.46806E+06      -491.477448   344.826816E+06      -192.216492
             3063   114.949032E+06   -57.464812E+06   -57.465988E+06       543.537659    344.82784E+06       420.334198
             3064   114.938672E+06   -57.474572E+06   -57.474636E+06  -1.14086230E+03   344.827488E+06       755.591797
             3065   114.941568E+06   -57.472392E+06   -57.472496E+06       8.85938072   344.828288E+06      -61.5753975
             3066   114.943448E+06   -57.470384E+06   -57.470304E+06      -35.0843277    344.82784E+06       1.55305815
             3067   114.938568E+06    -57.47444E+06   -57.474504E+06  -1.13678394E+03   344.828352E+06       77.6762772
             3068   114.952328E+06   -57.459992E+06   -57.459684E+06      -756.130005    344.82768E+06   1.02120929E+03
             3069   114.943088E+06   -57.471432E+06   -57.471248E+06      -661.021790   344.828096E+06      -38.6762314
             3070   114.941968E+06   -57.472616E+06    -57.47208E+06  -1.03838477E+03   344.829184E+06       423.340942
             3071   114.943392E+06   -57.470332E+06   -57.470204E+06      -62.6603012   344.827296E+06       129.922241
             3072   114.942528E+06   -57.471508E+06   -57.471888E+06      -699.434631   344.828416E+06      -379.576141
             3073   114.956352E+06    -57.45348E+06   -57.456356E+06       927.207214   344.825888E+06  -1.02057843E+03
             3074   114.947488E+06   -57.466868E+06   -57.465916E+06      -541.128906   344.829024E+06       767.322083
             3075   114.952728E+06   -57.464244E+06   -57.463596E+06  -1.30547974E+03   344.828224E+06      -449.089722
             3076   114.932112E+06   -57.477596E+06     -57.4772E+06       532.562866     344.8256E+06       82.1497345
             3077   114.950792E+06   -57.464888E+06   -57.461536E+06      -936.886658   344.828128E+06      -837.040100
             3078   114.930696E+06   -57.478928E+06    -57.47886E+06  -2.22575391E+03   344.825216E+06      -229.882248
             3079   114.938008E+06    -57.47484E+06   -57.475444E+06  -1.99080212E+03   344.828448E+06      -648.361023
             3080   114.941184E+06    -57.47264E+06    -57.47312E+06       50.1296463   344.827936E+06      -29.0966835
             3081    114.93984E+06   -57.474084E+06   -57.473568E+06      -379.476135   344.828096E+06      -869.108154
             3082   114.943088E+06   -57.470952E+06   -57.470968E+06       94.8966827   344.827968E+06      -20.5281010
             3083    114.94368E+06   -57.470952E+06   -57.470952E+06      -331.266785   344.828448E+06      -30.1389217
             3084    114.94728E+06   -57.464332E+06   -57.465424E+06      -534.583313   344.822656E+06  -1.22594751E+03
             3085   114.940192E+06   -57.473436E+06   -57.473528E+06      -379.881958    344.82848E+06       83.5981445
             3086   114.939136E+06   -57.473632E+06   -57.473252E+06       26.8363037   344.827488E+06       202.105850
             3087   114.943184E+06   -57.471636E+06   -57.471232E+06       263.867920   344.828672E+06      -184.595535
             3088    114.94156E+06    -57.47058E+06   -57.471868E+06  -1.29315906E+03   344.827776E+06      -694.204773
             3089    114.95884E+06   -57.459012E+06    -57.45798E+06   2.73424902E+03   344.825056E+06       266.914368
             3090    114.94316E+06   -57.470716E+06   -57.470568E+06       14.4057570   344.827712E+06      -10.2559919
             3091   114.941864E+06   -57.472104E+06   -57.472888E+06       221.847961   344.827648E+06       81.3963547
             3092   114.942048E+06   -57.472232E+06   -57.472712E+06      -746.524475   344.827872E+06      -21.5494499
             3093   114.944488E+06   -57.469164E+06     -57.4693E+06      -448.644226   344.827744E+06      -480.889587
             3094    114.94488E+06   -57.468952E+06   -57.469064E+06       225.833588   344.827488E+06      -13.1098051
             3095   114.943016E+06   -57.469044E+06   -57.469932E+06      -373.959229   344.827264E+06      -524.432678
             3096    114.95564E+06   -57.457484E+06    -57.45772E+06   1.04587439E+03   344.825728E+06       234.821030
             3097   114.944408E+06   -57.470348E+06   -57.469936E+06      -112.386436   344.828128E+06      -253.186600
             3098   114.941424E+06   -57.473036E+06    -57.47316E+06      -32.9131851   344.828448E+06      -103.405586
             3099   114.936928E+06   -57.477316E+06    -57.47726E+06      -573.477051    344.82976E+06      -51.2987328
             3100   114.945848E+06   -57.467956E+06   -57.468556E+06       284.578217   344.827904E+06      -189.640076
             3101    114.94296E+06   -57.470904E+06   -57.470988E+06       8.55397415   344.827936E+06       5.27315998
             3102   114.949512E+06     -57.4668E+06   -57.468444E+06       211.561508   344.829024E+06      -120.146317
             3103   114.941336E+06     -57.4723E+06   -57.473056E+06      -452.510742   344.827872E+06      -29.8365898
             3104   114.979712E+06   -57.437356E+06   -57.436496E+06   3.46715039E+03    344.82016E+06       384.618591
             3105    114.94328E+06   -57.466972E+06    -57.46646E+06      -473.049164   344.828096E+06       746.134338
             3106   114.960528E+06   -57.459408E+06   -57.460216E+06       970.719604   344.827744E+06       130.607162
             3107   114.944064E+06   -57.468236E+06   -57.468968E+06  -1.38696350E+03   344.827264E+06      -897.896057
             3108    114.94656E+06   -57.468372E+06   -57.468324E+06       39.3064346    344.82784E+06       86.5634918
             3109   114.943224E+06   -57.470484E+06   -57.470228E+06      -77.3351212   344.828032E+06       22.2930470
             3110   114.948776E+06   -57.468424E+06   -57.468376E+06   1.77108313E+03   344.829824E+06       574.077393
             3111   114.942952E+06   -57.472292E+06   -57.471792E+06      -33.4200592   344.828416E+06      -23.2835331
             3112    114.94164E+06   -57.472412E+06   -57.472244E+06      -224.472214   344.828288E+06       162.563660
             3113   114.934688E+06   -57.474888E+06    -57.47392E+06      -196.819809   344.822496E+06       377.605164
             3114    114.94872E+06   -57.465632E+06   -57.466784E+06      -338.949677    344.82656E+06      -172.495331
             3115   114.930904E+06   -57.480716E+06   -57.480408E+06   2.34327026E+03   344.826176E+06      -93.3617706
             3116   114.954696E+06   -57.461324E+06   -57.464244E+06   1.10482617E+03   344.827328E+06  -1.11596948E+03
             3117    114.93948E+06   -57.474988E+06   -57.473684E+06      -958.771240   344.827264E+06      -462.300171
             3118     114.9448E+06   -57.469748E+06   -57.469808E+06      -309.679626   344.827648E+06      -200.859390
             3119   114.942568E+06   -57.471244E+06   -57.471412E+06      -54.6354599   344.828096E+06      -94.6928024
             3120   114.943224E+06    -57.47086E+06   -57.470728E+06      -53.4509544   344.828064E+06       17.4961720
             3121   114.932944E+06    -57.47836E+06   -57.474896E+06   2.50132202E+03    344.82496E+06      -373.546478
             3122   114.938688E+06    -57.47714E+06   -57.475516E+06       496.912109   344.828192E+06      -67.5029907
             3123   114.942552E+06   -57.471556E+06   -57.471772E+06      -33.2281380   344.827936E+06      -146.722061
             3124   114.942824E+06   -57.471056E+06   -57.471328E+06      -89.3260956   344.827904E+06      -179.548950
             3125   114.942936E+06   -57.471128E+06   -57.470912E+06       119.884720   344.827808E+06      -64.5527496
             3126   114.942944E+06   -57.471076E+06   -57.470928E+06      -120.054726   344.827936E+06       19.9778061
             3127   114.954928E+06   -57.459528E+06   -57.458848E+06   1.61635339E+03   344.824288E+06       277.612762
             3128   114.943536E+06    -57.47056E+06   -57.470604E+06       227.528580   344.827904E+06       41.0685310
             3129   114.942392E+06   -57.470464E+06   -57.470916E+06      -112.978714   344.827392E+06       152.613571
             3130    114.95064E+06   -57.461392E+06   -57.462472E+06  -1.92408118E+03   344.827296E+06       362.151764
             3131   114.946048E+06   -57.468432E+06   -57.468216E+06       51.1693840   344.828032E+06      -158.668945
             3132   114.944544E+06   -57.469648E+06   -57.469472E+06       53.0649261    344.82752E+06       51.6333885
             3133    114.95448E+06    -57.45804E+06   -57.456392E+06   2.91229370E+03   344.826432E+06  -1.03224890E+03
             3134   114.941112E+06     -57.4716E+06    -57.47014E+06      -946.106934    344.82768E+06       595.965515
             3135    114.94204E+06   -57.472336E+06   -57.472336E+06  -889.948547E-03   344.828608E+06   222.362936E-03
             3136   114.942424E+06   -57.471488E+06   -57.471472E+06       99.9420395   344.827968E+06       2.91067982
             3137    114.94236E+06   -57.471432E+06   -57.471584E+06      -83.3927307   344.827456E+06      -188.681717
             3138   114.942144E+06    -57.47154E+06   -57.471668E+06       132.312943   344.827904E+06       23.6838493
             3139   114.949224E+06    -57.46554E+06   -57.465672E+06   2.54946753E+03   344.826432E+06       267.378387
             3140   114.942704E+06   -57.471188E+06   -57.471408E+06      -135.434631   344.828096E+06   400.498480E-03
             3141   114.939272E+06   -57.474208E+06   -57.473584E+06       405.714386   344.828544E+06      -135.632980
             3142   114.943328E+06   -57.470452E+06   -57.470284E+06       21.3463860   344.828064E+06      -45.1605301
             3143   114.941496E+06   -57.471864E+06   -57.471416E+06       18.7811584      344.828E+06      -137.486664
             3144   114.945192E+06   -57.468464E+06   -57.468396E+06      -551.707886   344.827008E+06      -161.296326
             3145    114.94184E+06   -57.471212E+06     -57.4692E+06       349.656921   344.829472E+06       630.865295
             3146    114.87024E+06   -57.531764E+06   -57.528444E+06   1.03033838E+03   344.836352E+06       636.145325
             3147   114.919016E+06   -57.489268E+06   -57.487096E+06       85.7154236   344.827424E+06   1.56112292E+03
             3148   114.943128E+06   -57.470116E+06   -57.469732E+06       117.487221   344.827776E+06      -230.729370
             3149   114.943168E+06   -57.471048E+06   -57.470472E+06       436.069550   344.827744E+06      -259.155670
             3150   114.932152E+06   -57.480572E+06   -57.478436E+06   3.88115601E+03   344.831424E+06       581.644897
             3151   114.943264E+06   -57.470244E+06   -57.470548E+06      -205.017120   344.827296E+06      -118.309723
             3152   114.940312E+06   -57.473512E+06   -57.473928E+06       128.454727   344.828128E+06      -353.605927
             3153    114.94492E+06   -57.470068E+06    -57.46994E+06      -598.800476   344.828032E+06      -323.314789
             3154   114.906176E+06   -57.501708E+06    -57.50106E+06   5.18560498E+03   344.830208E+06       566.639343
             3155   114.945448E+06   -57.469472E+06   -57.469396E+06      -258.717590   344.828032E+06      -172.384247
             3156   114.955952E+06   -57.460992E+06   -57.461768E+06  -1.14222693E+03   344.826976E+06      -386.511292
             3157    114.94344E+06   -57.470336E+06   -57.470384E+06       23.0720978   344.827584E+06      -188.863480
             3158   114.939976E+06   -57.475048E+06     -57.4765E+06       6.02760983    344.82864E+06       465.567383
             3159   114.933784E+06   -57.477928E+06   -57.482392E+06      -577.103455   344.826816E+06      -395.090729
             3160   114.898688E+06   -57.501892E+06   -57.502704E+06   4.72042725E+03   344.824928E+06       685.574951
             3161    114.94204E+06     -57.4719E+06   -57.472116E+06      -20.7395878   344.828064E+06       52.3841286
             3162     114.9412E+06   -57.473188E+06   -57.472936E+06      -428.946838   344.828448E+06      -135.097672
             3163   114.934272E+06   -57.481548E+06   -57.481084E+06      -814.234985   344.829184E+06       390.689545
             3164   114.943808E+06   -57.470724E+06   -57.470076E+06       355.985138   344.828704E+06       75.2162170
             3165   114.939536E+06   -57.475208E+06   -57.474372E+06      -337.744446   344.828192E+06      -192.090118
             3166   114.939968E+06   -57.473244E+06   -57.473212E+06      -408.663055    344.82768E+06       6.45115471
             3167   114.938856E+06   -57.476176E+06   -57.477836E+06       454.824310   344.827584E+06       952.359497
             3168   114.945648E+06    -57.46922E+06    -57.46916E+06       198.307602   344.828288E+06       47.7476044
             3169   114.947544E+06   -57.467652E+06   -57.467796E+06       332.119446    344.82816E+06       155.286667
             3170   114.947136E+06    -57.46838E+06   -57.468984E+06      -698.159180   344.827328E+06      -437.955841
             3171   114.984512E+06     -57.4352E+06   -57.436084E+06      -779.747803   344.823264E+06      -119.248665
             3172   114.931368E+06   -57.477584E+06   -57.475676E+06      -805.181763   344.824672E+06      -256.101196
             3173   114.945504E+06   -57.469596E+06   -57.469552E+06       89.4965744   344.828288E+06       141.195541
             3174   114.945104E+06   -57.473736E+06   -57.471968E+06      -205.502655   344.828736E+06      -165.281021
             3175     114.9426E+06   -57.470348E+06   -57.472344E+06  -1.16122046E+03   344.828128E+06       218.640381
             3176    114.93488E+06     -57.4794E+06   -57.480012E+06      -56.7658348   344.828448E+06   1.04631604E+03
             3177   114.952536E+06    -57.46382E+06    -57.46372E+06   1.24255798E+03   344.828608E+06       102.415192
             3178   114.948984E+06   -57.466808E+06   -57.465252E+06   2.26987695E+03   344.829888E+06       580.513123
             3179    114.91748E+06   -57.491484E+06   -57.489688E+06  -4.09849170E+03   344.829312E+06       510.616272
             3180   114.941792E+06    -57.47216E+06   -57.472136E+06      -38.1701088    344.82752E+06      -351.540833
             3181   114.879552E+06   -57.523564E+06   -57.523496E+06  -3.22672998E+03   344.831456E+06       124.965576
             3182   115.049072E+06   -57.385144E+06    -57.38908E+06   4.42241211E+03    344.81984E+06       871.356689
             3183   114.948888E+06    -57.46768E+06   -57.468176E+06       680.006409   344.829376E+06       440.479980
             3184   114.951176E+06   -57.464248E+06   -57.464352E+06      -217.266891   344.827616E+06      -2.29956079
             3185    114.94332E+06   -57.471284E+06   -57.471252E+06      -60.8723869   344.828032E+06       170.763382
             3186   114.917064E+06    -57.48892E+06   -57.490776E+06      -555.234436   344.826368E+06       77.2613449
             3187   114.931376E+06    -57.47722E+06   -57.476844E+06  -1.23738733E+03   344.824576E+06      -78.3918228
             3188   114.940728E+06   -57.472796E+06   -57.472736E+06      -459.381714      344.828E+06       119.497818
             3189   114.968256E+06   -57.451084E+06   -57.453708E+06   5.43906592E+03   344.824736E+06       182.560303
             3190   114.949848E+06    -57.46798E+06   -57.466848E+06   1.21730664E+03   344.829664E+06       226.969971
             3191   114.940472E+06   -57.473336E+06   -57.471968E+06       170.887177   344.829216E+06      -618.499756
             3192   114.941208E+06   -57.472004E+06   -57.471892E+06       347.664459    344.82768E+06      -35.0578461
             3193   114.921512E+06    -57.49032E+06   -57.490696E+06       511.997131   344.832128E+06      -321.848938
             3194   114.903136E+06   -57.508536E+06   -57.507636E+06   4.37546240E+03   344.833312E+06  -1.94235999E+03
             3195   114.944128E+06   -57.470208E+06   -57.471096E+06      -871.979736    344.82656E+06       391.131012
             3196   114.984264E+06    -57.43406E+06   -57.433964E+06      -456.011047   344.820416E+06      -187.455231
             3197   114.942792E+06   -57.473248E+06   -57.474108E+06   3.09153223E+03     344.8304E+06       197.485489
             3198   114.942384E+06   -57.473168E+06   -57.472016E+06   2.31531128E+03   344.828288E+06       103.670624
             3199   114.996792E+06    -57.42484E+06   -57.425212E+06   2.30729321E+03   344.823392E+06      -80.7482529
             3200    114.95304E+06   -57.460572E+06   -57.462368E+06  -2.13806372E+03   344.827488E+06      -483.915466
             3201    114.94132E+06   -57.472668E+06    -57.47308E+06      -156.274582   344.828448E+06      -230.184021
             3202   114.940424E+06   -57.474008E+06   -57.472396E+06      -197.816101   344.828736E+06       94.4192123
             3203   114.940912E+06    -57.47238E+06   -57.473996E+06      -281.212128   344.827584E+06       173.650070
             3204   114.981912E+06   -57.438504E+06   -57.439388E+06  -2.35670630E+03    344.82576E+06      -232.930939
             3205   114.942256E+06   -57.471788E+06   -57.470512E+06      -289.876526   344.828128E+06       255.370239
             3206   114.946984E+06   -57.468172E+06     -57.4677E+06      -80.1186295   344.828256E+06       153.202240
             3207   114.935728E+06   -57.476764E+06   -57.477088E+06      -166.869415   344.828096E+06      -104.869995
             3208   114.963336E+06   -57.454496E+06   -57.456336E+06  -1.34600427E+03    344.82528E+06       842.532776
             3209   114.939856E+06   -57.473164E+06   -57.472276E+06      -947.176636      344.828E+06      -325.772278
             3210   114.941992E+06   -57.471988E+06   -57.471932E+06      -20.4835529      344.828E+06       42.5559731
             3211   114.942152E+06   -57.464512E+06   -57.464824E+06  -1.75100525E+03   344.823968E+06  -1.30268811E+03
             3212   114.944072E+06   -57.470052E+06    -57.47116E+06       247.871399   344.827584E+06      -287.895111
             3213   115.003848E+06   -57.420972E+06   -57.419556E+06   1.89842639E+03   344.823424E+06       89.9866028
             3214   114.943728E+06   -57.471084E+06   -57.470168E+06      -137.984177   344.828128E+06       433.196594
             3215   114.941944E+06   -57.472604E+06   -57.473188E+06       130.853867    344.82768E+06       348.998108
             3216   114.944128E+06   -57.469992E+06   -57.469596E+06       204.540894   344.827648E+06       184.068939
             3217     114.9142E+06    -57.49234E+06   -57.489796E+06  -3.32457837E+03   344.829632E+06      -511.848724
             3218   114.937664E+06    -57.47512E+06    -57.47518E+06       372.348755   344.827328E+06      -174.590759
             3219   114.947928E+06   -57.467232E+06   -57.467168E+06       297.469910   344.826848E+06      -498.563324
             3220   114.940896E+06   -57.473116E+06   -57.469364E+06   2.01235828E+03   344.830112E+06      -3.42956614
             3221   114.935064E+06   -57.476492E+06   -57.474412E+06   1.17948889E+03   344.827968E+06       92.3384247
             3222   114.949232E+06   -57.471912E+06   -57.472392E+06      -644.387085    344.83008E+06  -2.59653638E+03
             3223   114.941504E+06   -57.471972E+06   -57.470648E+06   1.23486450E+03   344.828448E+06       67.6679916
             3224   114.947152E+06   -57.469688E+06    -57.46812E+06       393.120239   344.828896E+06  -1.52154858E+03
             3225   114.942104E+06   -57.472356E+06   -57.472272E+06       63.4941978   344.828192E+06       152.575592
             3226   114.937408E+06   -57.476176E+06    -57.47498E+06       937.617310   344.829568E+06       43.5357399
             3227   114.944872E+06   -57.468932E+06   -57.469428E+06      -101.296837    344.82784E+06      -340.406189
             3228   114.940736E+06   -57.473076E+06   -57.472956E+06      -265.039398   344.827776E+06      -189.913788
             3229   114.947888E+06   -57.467628E+06   -57.465652E+06   1.29143152E+03   344.828512E+06       578.028687
             3230   114.949816E+06   -57.464532E+06   -57.463536E+06   1.03749585E+03   344.825632E+06      -155.749313
             3231    114.94156E+06   -57.472128E+06    -57.47256E+06      -459.670227   344.828192E+06       214.379395
             3232   114.934784E+06    -57.47712E+06   -57.476924E+06       170.433533    344.82736E+06       81.8433380
             3233   114.929856E+06   -57.477812E+06   -57.478644E+06  -2.91054321E+03   344.822656E+06       521.984985
             3234   114.941696E+06    -57.47164E+06      -57.472E+06       50.5385666    344.82816E+06      -130.474182
             3235      114.944E+06    -57.47068E+06   -57.470756E+06      -468.650787   344.828352E+06       88.5338211
             3236   114.943824E+06   -57.470292E+06   -57.470496E+06       117.182495   344.827968E+06       197.306366
             3237   114.927384E+06   -57.481016E+06    -57.48396E+06   2.57338062E+03   344.828672E+06  -1.11140991E+03
             3238   114.949432E+06    -57.46608E+06   -57.466272E+06       16.1441288   344.827904E+06      -16.6528969
             3239   114.944576E+06   -57.470276E+06    -57.47044E+06      -646.065369   344.827968E+06      -370.000885
             3240   114.947784E+06    -57.46606E+06   -57.466048E+06       196.713943   344.827712E+06   1.70702356E+03
             3241   114.942064E+06   -57.474072E+06   -57.474352E+06  -3.89615479E+03   344.829472E+06      -485.157806
             3242   114.945992E+06     -57.4697E+06    -57.47016E+06      -807.343994   344.827968E+06       290.536072
             3243   114.939352E+06   -57.473776E+06   -57.474344E+06      -18.8567677   344.829792E+06       753.313354
             3244   114.951112E+06   -57.466216E+06   -57.464996E+06      -893.990845   344.829056E+06      -347.248383
             3245    114.94036E+06     -57.4738E+06   -57.473152E+06       185.774063   344.828192E+06       818.743774
             3246   114.945744E+06   -57.469368E+06    -57.46912E+06       418.359375   344.828096E+06      -70.4462814
             3247    114.94056E+06   -57.473744E+06   -57.473508E+06      -464.228729   344.828384E+06      -385.649445
             3248   114.941464E+06   -57.472504E+06   -57.472536E+06       188.176392   344.827872E+06      -271.835358
             3249   114.933816E+06   -57.476636E+06   -57.477008E+06       924.482178   344.826112E+06      -148.567566
             3250   114.945064E+06   -57.468464E+06    -57.46864E+06      -351.690704   344.827936E+06      -73.2941818
             3251   114.929272E+06   -57.481404E+06   -57.481152E+06  -2.36586914E+03   344.827456E+06       36.1856422
             3252   114.941624E+06   -57.471868E+06   -57.471408E+06      -861.295349    344.82784E+06       347.444885
             3253   114.943776E+06   -57.470996E+06   -57.470792E+06       86.7321167   344.828384E+06       128.941925
             3254    114.94248E+06    -57.47128E+06   -57.471056E+06      -611.825439   344.827488E+06      -73.1922226
             3255   114.943216E+06   -57.471304E+06   -57.470312E+06      -986.093262   344.826656E+06  -1.19481543E+03
             3256   114.951296E+06    -57.46716E+06   -57.469884E+06   3.18177148E+03   344.826624E+06  -2.03100781E+03
             3257    114.94324E+06     -57.4712E+06    -57.47104E+06      -371.499420   344.827968E+06       121.810654
             3258   114.932688E+06   -57.478156E+06   -57.477332E+06   1.53817456E+03   344.824864E+06       916.855652
             3259   114.949632E+06   -57.468608E+06   -57.470176E+06       670.801514    344.82816E+06  -1.46388843E+03
             3260   114.947408E+06    -57.47044E+06   -57.472832E+06   1.14253687E+03   344.829056E+06  -1.14202124E+03
             3261     114.9418E+06   -57.471588E+06   -57.471776E+06      -37.6918297   344.827872E+06      -66.5072861
             3262    114.94316E+06    -57.47078E+06   -57.470464E+06      -174.384247      344.828E+06      -151.128128
             3263   114.942856E+06   -57.471032E+06    -57.47108E+06       45.7206841   344.827872E+06      -31.6678028
             3264   114.947928E+06     -57.4675E+06    -57.46712E+06      -69.4366989   344.828096E+06      -227.978485
             3265   114.945952E+06   -57.469028E+06   -57.468888E+06       216.655655    344.82784E+06      -156.432938
             3266    114.94348E+06    -57.47026E+06     -57.4704E+06      -5.97394514    344.82784E+06      -141.811707
             3267    114.94348E+06   -57.471996E+06   -57.471912E+06   1.07090869E+03   344.829536E+06      -60.6085205
             3268    114.92888E+06   -57.484456E+06    -57.48548E+06      -340.189453   344.831616E+06       722.988770
             3269    114.94308E+06     -57.4706E+06   -57.470736E+06       106.247040   344.827648E+06      -75.4202957
             3270   114.941672E+06   -57.472196E+06   -57.472712E+06      -3.22178173   344.827808E+06       5.77309084
             3271    114.94156E+06    -57.47174E+06   -57.471908E+06       91.1447906   344.828096E+06      -186.470642
             3272   114.948992E+06   -57.466632E+06   -57.466996E+06       720.626282   344.828672E+06       177.755310
             3273    114.94596E+06     -57.4682E+06   -57.468796E+06      -30.2520695   344.828128E+06      -132.730591
             3274   114.935976E+06   -57.476616E+06     -57.4768E+06       726.222412   344.828448E+06      -31.7673340
             3275   114.966032E+06   -57.452412E+06    -57.45172E+06  -1.70866003E+03   344.829696E+06  -1.00238904E+03
             3276   114.939848E+06   -57.473864E+06   -57.473336E+06       251.319046   344.828416E+06       188.124985
             3277   114.939472E+06   -57.477236E+06   -57.476316E+06       563.958496   344.828096E+06       78.6578598
             3278    114.95936E+06   -57.456088E+06   -57.456828E+06       339.159821   344.823744E+06      -537.452881
             3279    114.94472E+06    -57.46694E+06   -57.468072E+06      -741.870728   344.826912E+06      -959.569092
             3280   114.942944E+06   -57.471868E+06   -57.471396E+06      -287.999756   344.827904E+06       686.808899
             3281    114.94536E+06   -57.469484E+06   -57.469516E+06       131.324936   344.828384E+06       11.9281349
             3282   114.942624E+06   -57.472468E+06    -57.47198E+06      -78.6253281   344.828096E+06       285.929199
             3283    114.93884E+06   -57.472576E+06   -57.472344E+06      -623.102234    344.82624E+06      -216.017532
             3284   114.941008E+06   -57.474288E+06   -57.474268E+06   1.45667468E+03   344.828512E+06       162.740402
             3285   114.946304E+06      -57.468E+06    -57.46736E+06       351.937469   344.827744E+06       81.4303818
             3286     114.9324E+06   -57.481964E+06   -57.482732E+06  -2.02032190E+03   344.831424E+06       631.662720
             3287   114.941928E+06   -57.470836E+06   -57.470744E+06       103.872139   344.827104E+06      -379.220032
             3288   114.959008E+06   -57.463448E+06   -57.462068E+06  -1.77069019E+03   344.829696E+06      -976.864746
             3289   114.946304E+06   -57.466816E+06    -57.46652E+06   5.41312793E+03   344.826528E+06       79.2369461
             3290   114.942976E+06   -57.471696E+06   -57.471524E+06       58.2117996   344.827872E+06      -73.2708817
             3291   114.940392E+06    -57.47342E+06   -57.474284E+06      -132.578339   344.827648E+06       55.2841454
             3292    114.94156E+06   -57.475012E+06   -57.476668E+06      -485.844635   344.830016E+06       947.990234
             3293   114.944224E+06   -57.470424E+06   -57.470332E+06      -268.682007   344.829024E+06      -160.366669
             3294     114.9428E+06    -57.47112E+06   -57.470936E+06       174.424286   344.828032E+06      -70.6453094
             3295   114.946408E+06   -57.467124E+06   -57.468156E+06       79.0932465   344.827648E+06      -313.434723
             3296   114.942888E+06   -57.471416E+06   -57.471072E+06       78.2100830   344.827968E+06      -2.39566040
             3297   114.945264E+06    -57.46882E+06   -57.469432E+06       740.663086    344.82816E+06      -2.39293027
             3298   114.955936E+06   -57.457144E+06   -57.455024E+06  -1.38259351E+03    344.82272E+06   1.63847717E+03
             3299   114.940984E+06   -57.472364E+06   -57.471216E+06      -922.058350   344.827904E+06       167.625381
             3300    114.94432E+06    -57.47086E+06   -57.469936E+06  -1.12456311E+03   344.827008E+06      -286.253357
             3301    114.94504E+06    -57.46924E+06   -57.470012E+06       279.067200   344.827392E+06       376.296844
             3302   114.940856E+06   -57.473328E+06   -57.474388E+06       697.212341     344.8288E+06       102.688873
             3303    114.94192E+06   -57.471368E+06    -57.47178E+06       680.968079    344.82848E+06      -124.035545
             3304   114.947056E+06    -57.46868E+06   -57.467148E+06      -104.681694   344.828704E+06       366.460144
             3305   114.945816E+06   -57.469708E+06   -57.469812E+06       823.086548   344.829376E+06      -76.1341629
             3306   114.941368E+06   -57.472824E+06   -57.474244E+06       161.256363   344.827904E+06      -353.423981
             3307   114.942816E+06   -57.470384E+06   -57.470476E+06       161.919800   344.827488E+06       369.530975
             3308   114.929104E+06   -57.480976E+06   -57.480444E+06       432.379852   344.827968E+06      -393.763214
             3309   114.943472E+06    -57.47062E+06   -57.470232E+06       14.6693153   344.828192E+06      -140.929474
             3310   114.932976E+06   -57.478944E+06   -57.477392E+06       146.544739    344.83056E+06      -642.311829
             3311   114.944128E+06   -57.469148E+06   -57.468632E+06      -140.567047   344.827648E+06      -353.225494
             3312   114.940744E+06   -57.473196E+06   -57.472584E+06      -267.223236   344.828256E+06       1.77480912
             3313   114.924392E+06   -57.484164E+06   -57.481972E+06       381.879456   344.830112E+06  -1.04080859E+03
             3314    114.94376E+06   -57.472764E+06   -57.471896E+06   1.78608972E+03   344.831264E+06       630.264709
             3315   114.943784E+06    -57.47024E+06   -57.470392E+06       63.0406761   344.827744E+06       65.4229431
             3316   114.937408E+06     -57.4773E+06   -57.476676E+06      -106.316780   344.828064E+06      -556.985901
             3317   114.943336E+06   -57.469936E+06   -57.470232E+06       106.098389    344.82752E+06       112.801849
             3318   114.940032E+06   -57.472948E+06   -57.473056E+06      -257.271576   344.828128E+06       150.269669
             3319   114.884768E+06   -57.520188E+06   -57.518628E+06   7.01771582E+03   344.833344E+06       561.592773
             3320   114.931992E+06   -57.481756E+06   -57.480936E+06  -3.28097925E+03   344.832864E+06       798.380798
             3321    114.94312E+06   -57.470384E+06   -57.470716E+06      -63.5552216   344.827712E+06       26.9827290
             3322   114.944136E+06   -57.469524E+06   -57.468896E+06      -131.824829   344.827648E+06      -235.454575
             3323   114.941288E+06   -57.468252E+06   -57.469024E+06       123.751755   344.825536E+06      -547.690674
             3324   114.870248E+06   -57.529096E+06   -57.524232E+06  -1.04459790E+03   344.834464E+06      -186.488342
             3325   114.944576E+06   -57.469576E+06   -57.469324E+06      -33.5493698   344.827616E+06       57.9565735
             3326   114.942848E+06    -57.47158E+06   -57.471436E+06      -45.8022690    344.82832E+06       182.522293
             3327   114.943552E+06   -57.470196E+06   -57.470404E+06      -389.375092   344.828096E+06       125.522339
             3328   114.943496E+06   -57.470776E+06   -57.470792E+06      -22.1561642   344.828224E+06       11.8815775
             3329   114.893088E+06   -57.512708E+06   -57.514036E+06       250.834457    344.83328E+06       951.104248
             3330   114.944408E+06   -57.469684E+06   -57.469676E+06       173.363007   344.827456E+06       13.0396767
             3331   114.940136E+06   -57.473904E+06   -57.472468E+06      -532.419800    344.82816E+06       161.188400
             3332   114.954408E+06   -57.457592E+06   -57.456628E+06       633.084717   344.826048E+06       355.895599
             3333   114.946264E+06   -57.466676E+06   -57.465876E+06   1.94521069E+03   344.825664E+06      -480.366455
             3334    114.94356E+06   -57.470052E+06   -57.470084E+06       263.975281   344.827648E+06      -28.1853504
             3335   114.960816E+06   -57.457272E+06     -57.4564E+06      -323.475677   344.825632E+06      -636.987183
             3336   114.942408E+06    -57.47148E+06   -57.471328E+06      -58.5206337    344.82832E+06       69.6679153
             3337   114.935104E+06   -57.474592E+06   -57.474816E+06   1.13561951E+03   344.827296E+06       364.710144
             3338   114.943176E+06   -57.470772E+06    -57.47118E+06       252.972931    344.82784E+06       60.5699768
             3339   114.943568E+06   -57.468132E+06   -57.470852E+06       381.242065    344.82752E+06      -135.826675
             3340     114.9414E+06   -57.473328E+06   -57.474428E+06      -25.0943089   344.828224E+06      -50.8537979
             3341   114.941072E+06   -57.473504E+06   -57.473976E+06      -36.1273956   344.827712E+06       334.838806
             3342   114.949328E+06   -57.465144E+06   -57.465144E+06   54.5014739E-03   344.827104E+06      -415.478363
             3343   114.943264E+06    -57.47044E+06   -57.470204E+06       33.6573029   344.827968E+06      -7.40505266
             3344   114.943256E+06     -57.4704E+06   -57.470512E+06       84.8106766   344.828064E+06       18.6673851
             3345    114.94412E+06     -57.4705E+06   -57.470504E+06       83.8837433    344.82768E+06      -104.750793
             3346    114.94228E+06   -57.471704E+06   -57.471896E+06      -102.655197      344.828E+06      -196.197617
             3347   114.948936E+06   -57.465088E+06   -57.464092E+06   1.24529956E+03   344.827392E+06      -288.879425
             3348     114.8544E+06   -57.552076E+06   -57.553028E+06  -7.71566211E+03   344.841664E+06       324.610657
             3349   114.957424E+06   -57.456536E+06   -57.456924E+06      -959.323486   344.825888E+06   1.06466284E+03
             3350   114.940816E+06   -57.472376E+06   -57.473216E+06      -743.769104   344.827712E+06      -349.741089
             3351   114.936896E+06   -57.477424E+06   -57.478984E+06  -1.22548462E+03   344.827168E+06      -357.003601
             3352   114.992392E+06   -57.431908E+06   -57.431632E+06  -4.15875928E+03   344.827552E+06       232.843781
             3353   114.944648E+06   -57.470636E+06   -57.472348E+06       859.173645    344.82688E+06      -16.2489986
             3354   114.941504E+06    -57.47306E+06    -57.47354E+06  -2.85171680E+03     344.8272E+06       103.777229
             3355   114.992072E+06   -57.429736E+06   -57.431056E+06  -4.80797559E+03   344.823328E+06       46.8821487
             3356   114.941032E+06   -57.471484E+06   -57.471332E+06      -669.432251   344.828448E+06       94.3513031
             3357   114.940648E+06   -57.474112E+06    -57.47496E+06  -1.84253967E+03   344.825952E+06       846.841553
             3358     114.9498E+06   -57.465404E+06   -57.464448E+06       987.052795   344.828576E+06       669.974976
             3359   114.942664E+06    -57.47696E+06   -57.475596E+06   1.00625098E+03   344.829376E+06      -855.885986
             3360   114.942488E+06   -57.471616E+06   -57.471688E+06       207.415894    344.82832E+06       51.5358734
             3361   114.972872E+06   -57.447904E+06    -57.44932E+06   1.90338037E+03   344.826784E+06      -264.251282
             3362   114.936152E+06   -57.477632E+06   -57.480088E+06       755.028564     344.8272E+06       763.549927
             3363   114.949216E+06    -57.46488E+06   -57.464468E+06       243.262192   344.827584E+06      -216.428543
             3364    114.94232E+06   -57.471128E+06     -57.4687E+06      -334.518372   344.830048E+06       455.614838
             3365   114.949312E+06   -57.468504E+06   -57.465132E+06  -1.08361743E+03   344.827968E+06  -1.70260352E+03
             3366   114.939576E+06   -57.475332E+06   -57.475844E+06      -368.196167   344.828704E+06       407.350372
             3367   114.957712E+06   -57.458812E+06   -57.460928E+06  -2.21619214E+03   344.828352E+06  -1.48775232E+03
             3368   114.925096E+06   -57.487224E+06   -57.486868E+06   3.06463306E+03   344.830048E+06      -821.515625
             3369   114.938304E+06   -57.478168E+06   -57.477548E+06   3.30171069E+03   344.830368E+06       935.024231
             3370   114.950448E+06   -57.462956E+06   -57.461924E+06      -332.069366    344.82672E+06       351.436035
             3371   114.940264E+06   -57.472672E+06   -57.471972E+06       104.478104     344.8272E+06   1.11807202E+03
             3372   114.948728E+06   -57.465696E+06   -57.464156E+06  -1.02677539E+03    344.82912E+06   1.07388452E+03
             3373   114.941552E+06   -57.474032E+06   -57.474448E+06   2.80748047E+03   344.823648E+06   2.04137170E+03
             3374   114.941872E+06   -57.472068E+06   -57.471976E+06       70.6323166   344.828128E+06       88.1329422
             3375   114.940176E+06   -57.474552E+06   -57.474744E+06       884.497498    344.82816E+06       726.169861
             3376   114.941728E+06    -57.47032E+06   -57.470184E+06  -1.56911646E+03   344.825472E+06       516.417847
             3377   114.945432E+06   -57.469048E+06   -57.468976E+06      -280.173492   344.828576E+06      -677.202209
             3378   114.867936E+06   -57.534384E+06   -57.533596E+06  -8.27946582E+03   344.835168E+06      -479.868103
             3379    114.93592E+06   -57.481784E+06   -57.478428E+06  -4.68063232E+03    344.83008E+06      -930.988770
             3380   114.944088E+06   -57.470036E+06   -57.469884E+06      -360.641022   344.828288E+06      -125.885048
             3381    114.94876E+06   -57.469352E+06   -57.469468E+06       555.323730   344.828704E+06       382.112549
             3382   114.942728E+06    -57.47116E+06   -57.470916E+06      -253.900650   344.827808E+06      -117.064850
             3383   114.944856E+06   -57.469156E+06   -57.472128E+06      -69.8789749   344.826336E+06       813.362122
             3384    114.94236E+06   -57.471024E+06    -57.47132E+06       55.7766304   344.827776E+06       68.7646255
             3385   114.994584E+06   -57.430656E+06   -57.431796E+06   2.90215698E+03   344.827008E+06   1.16032397E+03
             3386   114.942216E+06   -57.472176E+06    -57.47206E+06       361.527985   344.828128E+06      -197.836151
             3387    114.94132E+06   -57.472004E+06   -57.471716E+06      -96.6587601    344.82816E+06      -29.3781948
             3388   114.941112E+06   -57.473636E+06   -57.471936E+06      -240.091980    344.82784E+06      -390.194183
             3389   114.940464E+06   -57.473332E+06   -57.472536E+06      -404.121918   344.828128E+06      -88.2551041
             3390   114.940928E+06   -57.472532E+06   -57.471448E+06      -121.405167   344.829312E+06       255.245895
             3391    114.94444E+06   -57.470388E+06   -57.469996E+06       169.315903   344.828064E+06       59.5248184
             3392   114.938296E+06   -57.472724E+06   -57.473704E+06   1.51276172E+03   344.824224E+06       313.165802
             3393   114.942896E+06   -57.471412E+06    -57.47122E+06      -21.3921509   344.827936E+06      -189.889313
             3394   114.944136E+06   -57.469572E+06   -57.468948E+06       312.786163   344.827712E+06      -421.404022
             3395   114.955648E+06   -57.462992E+06   -57.464184E+06   1.31098083E+03   344.828512E+06       368.773224
             3396   114.939376E+06    -57.47606E+06   -57.477508E+06  -1.48076501E+03   344.829024E+06      -214.197113
             3397   114.960832E+06   -57.457788E+06   -57.457144E+06   2.40129858E+03   344.825312E+06       207.387482
             3398   114.915808E+06   -57.492716E+06   -57.493472E+06   3.63585303E+03   344.829984E+06      -558.673279
             3399   114.935576E+06   -57.479076E+06   -57.480096E+06   1.05532605E+03   344.829184E+06       421.313049
             3400   114.952264E+06   -57.465176E+06   -57.465896E+06       434.247101   344.826464E+06      -189.067108
             3401    114.94384E+06   -57.469864E+06   -57.470268E+06       13.1219292   344.827808E+06      -21.3380146
             3402    114.92216E+06   -57.490548E+06   -57.490296E+06   2.89171509E+03   344.832672E+06      -675.166504
             3403   114.924152E+06   -57.485712E+06   -57.484476E+06   1.50794958E+03   344.829344E+06       803.752441
             3404   114.943472E+06    -57.47056E+06   -57.470768E+06      -308.793823   344.827904E+06      -22.4979668
             3405   114.943816E+06   -57.470104E+06   -57.470264E+06      -177.499237     344.8272E+06       755.850037
             3406   114.964112E+06   -57.456616E+06   -57.456844E+06   5.88815576E+03   344.826976E+06   1.19505139E+03
             3407    114.95588E+06   -57.458484E+06   -57.458124E+06  -1.61352515E+03    344.82624E+06      -174.661987
             3408   114.961392E+06   -57.457736E+06   -57.458504E+06  -4.32780078E+03    344.82624E+06       910.212830
             3409   114.946104E+06     -57.4692E+06   -57.466828E+06  -1.05987329E+03   344.829312E+06      -233.329727
             3410   114.941184E+06   -57.472076E+06    -57.47226E+06      -352.117004   344.827968E+06      -163.119247
             3411   114.962864E+06    -57.45178E+06   -57.454116E+06  -4.67346387E+03   344.819424E+06   1.18259009E+03
             3412     114.9558E+06   -57.460352E+06   -57.460728E+06       339.664948   344.824096E+06       758.234680
             3413   114.940152E+06   -57.475016E+06   -57.474856E+06      -491.469727   344.828224E+06      -412.164825
             3414   115.034928E+06   -57.393944E+06   -57.395164E+06   6.90485449E+03   344.822272E+06      -498.046265
             3415   114.951272E+06   -57.474096E+06   -57.470168E+06  -1.93496033E+03    344.82944E+06      -610.975647
             3416   114.946672E+06    -57.46968E+06   -57.469308E+06   1.45845447E+03   344.829728E+06      -137.960938
             3417   114.948784E+06   -57.466204E+06    -57.46624E+06       551.784973   344.827712E+06      -16.8959427
             3418   114.935272E+06   -57.478528E+06   -57.480036E+06  -1.15255310E+03   344.829312E+06       178.323013
             3419   114.948328E+06   -57.464476E+06   -57.466032E+06  -1.80431824E+03   344.826624E+06      -11.6945972
             3420   114.942536E+06   -57.470564E+06   -57.470912E+06      -544.603699    344.82736E+06       239.752136
             3421   114.947616E+06   -57.466752E+06   -57.465856E+06       941.290955   344.826944E+06       161.948196
             3422   114.944808E+06    -57.46984E+06   -57.470088E+06       112.305855   344.827584E+06       165.549759
             3423   114.947168E+06   -57.467092E+06   -57.467152E+06      -390.900604   344.827456E+06      -44.2261581
             3424    114.93456E+06   -57.476732E+06   -57.478136E+06       149.763290   344.829536E+06       553.523193
             3425   114.943464E+06   -57.469168E+06   -57.469384E+06      -749.417175   344.827264E+06       171.146347
             3426   114.942136E+06   -57.471868E+06    -57.47174E+06      -33.1172028   344.827744E+06       105.428787
             3427   114.949272E+06   -57.464336E+06   -57.464068E+06       200.876099   344.827104E+06       790.630066
             3428   114.919088E+06   -57.496124E+06    -57.49506E+06   3.71109302E+03   344.833664E+06  -1.35099390E+03
             3429   114.946464E+06   -57.468412E+06   -57.468596E+06       885.776917   344.827328E+06      -217.558853
             3430   114.944736E+06   -57.468872E+06   -57.468604E+06       207.017853   344.828096E+06      -978.042542
             3431    114.94284E+06   -57.470796E+06   -57.471084E+06       134.690430   344.827904E+06       55.4553299
             3432   114.939312E+06   -57.473832E+06   -57.473948E+06       168.128418   344.827904E+06      -151.654633
             3433   114.942816E+06   -57.465992E+06   -57.466084E+06      -426.017822   344.823136E+06      -362.040955
             3434   114.941912E+06   -57.471644E+06    -57.47138E+06      -37.7726898   344.827776E+06      -265.652496
             3435   114.941976E+06      -57.472E+06   -57.471608E+06       660.495056   344.828128E+06       316.705658
             3436   114.943888E+06   -57.468048E+06   -57.468816E+06       160.353165   344.826752E+06      -644.845642
             3437   114.941192E+06   -57.473184E+06     -57.4735E+06       958.911987   344.828928E+06      -103.398468
             3438   114.953264E+06   -57.462648E+06    -57.46262E+06       299.402557   344.827392E+06      -73.4060974
             3439   114.975856E+06   -57.448588E+06   -57.449036E+06   6.29508594E+03   344.833152E+06      -516.632385
             3440   114.979608E+06   -57.439172E+06   -57.441852E+06   11.7135068E+03   344.823456E+06   1.39565527E+03
             3441   114.942704E+06   -57.472384E+06   -57.471516E+06      -486.582855    344.82784E+06      -136.218246
             3442   114.941664E+06   -57.472436E+06   -57.472376E+06      -87.6778030   344.828352E+06      -29.4418755
             3443   114.943144E+06   -57.470572E+06    -57.47046E+06      -112.179512    344.82784E+06      -52.0248413
             3444   114.943816E+06   -57.470968E+06   -57.470544E+06       108.662735   344.828096E+06       51.2354507
             3445   114.939456E+06   -57.474364E+06   -57.475172E+06      -313.354706   344.829472E+06      -419.214813
             3446   114.940496E+06   -57.473292E+06   -57.473352E+06       313.047882    344.82816E+06       337.819580
             3447   114.955984E+06   -57.462156E+06    -57.46168E+06      -622.552673   344.830368E+06       287.810883
             3448   114.950752E+06   -57.465364E+06   -57.465296E+06      -61.3487816   344.828832E+06       122.977768
             3449   114.942344E+06   -57.471892E+06    -57.47236E+06       352.320282   344.827648E+06       410.807373
             3450   114.942752E+06   -57.475768E+06    -57.47416E+06      -791.865051   344.828512E+06       160.079681
             3451    114.94476E+06    -57.46892E+06   -57.469568E+06      -111.854820   344.827744E+06       321.691498
             3452   114.944056E+06   -57.470068E+06     -57.4706E+06       74.5988846   344.827872E+06       7.82057858
             3453    114.92968E+06   -57.477872E+06    -57.47856E+06  -4.28188477E+03   344.822944E+06      -34.1618118
             3454     114.9434E+06   -57.470344E+06   -57.470304E+06       472.663147   344.827552E+06   741.869688E-03
             3455   114.940192E+06   -57.472324E+06     -57.4724E+06       288.484100   344.827232E+06      -210.843979
             3456   114.944376E+06    -57.47002E+06    -57.47036E+06       39.1266212   344.827808E+06       293.413483
             3457   114.943384E+06   -57.470392E+06   -57.470716E+06       202.709045   344.827808E+06       141.885574
             3458   114.947568E+06    -57.46878E+06   -57.469888E+06       976.337585    344.82896E+06       247.533463
             3459   114.949248E+06   -57.463728E+06   -57.463548E+06      -668.579346   344.827008E+06  -1.15285901E+03
             3460   114.942584E+06    -57.47118E+06   -57.471264E+06       399.196899    344.82768E+06      -83.3613434
             3461   114.954336E+06   -57.461044E+06   -57.460596E+06   3.40139233E+03   344.827296E+06       612.612732
             3462   114.939968E+06   -57.472036E+06   -57.472888E+06   1.74032043E+03   344.825312E+06       112.970886
             3463   114.940432E+06   -57.472904E+06   -57.472984E+06       450.621857   344.827904E+06       39.4774132
             3464   114.944824E+06    -57.46956E+06   -57.468864E+06      -44.0799065    344.82816E+06      -186.309494
             3465   114.936168E+06   -57.471544E+06   -57.469788E+06  -2.88785596E+03    344.82336E+06       183.014160
             3466   114.939064E+06   -57.473964E+06   -57.473824E+06       140.382309    344.82816E+06      -119.651253
             3467   114.939904E+06   -57.472536E+06   -57.473056E+06      -215.594391   344.827872E+06      -102.381233
             3468   114.948632E+06    -57.46724E+06   -57.468632E+06  -6.03087598E+03   344.826336E+06       670.896729
             3469   114.913328E+06   -57.494488E+06   -57.494784E+06   1.69455237E+03   344.827392E+06      -161.631592
             3470   114.941336E+06   -57.473284E+06   -57.474872E+06      -176.260544   344.828096E+06       84.5619278
             3471    114.95552E+06   -57.465144E+06      -57.465E+06  -1.43566541E+03   344.830624E+06      -575.080750
             3472   114.946912E+06    -57.46786E+06   -57.467964E+06      -593.433716   344.827712E+06      -49.0627098
             3473   114.941912E+06   -57.471832E+06   -57.471752E+06      -704.716370    344.82848E+06      -253.384766
             3474   114.959776E+06   -57.459076E+06   -57.461628E+06       827.203979   344.826336E+06       241.616119
             3475    114.90004E+06   -57.505256E+06   -57.504952E+06  -10.0386885E+03   344.832032E+06  -1.33178235E+03
             3476   114.930488E+06   -57.487936E+06   -57.486276E+06   1.43662732E+03   344.831392E+06      -787.154907
             3477       114.96E+06   -57.462156E+06   -57.461612E+06  -4.87488281E+03     344.8328E+06       326.342316
             3478   114.984568E+06    -57.42764E+06   -57.424172E+06       926.076111   344.819488E+06       172.852921
             3479   114.930736E+06   -57.486488E+06   -57.486708E+06      -827.460938   344.833536E+06       864.524109
             3480   114.941952E+06   -57.472016E+06   -57.472352E+06      -600.516418   344.827424E+06      -430.247375
             3481   114.943056E+06    -57.47104E+06    -57.47116E+06       25.7377605   344.828096E+06      -68.7918091
             3482   114.934752E+06    -57.47902E+06   -57.477664E+06       688.764404    344.82848E+06      -609.024780
             3483   114.941872E+06   -57.472112E+06   -57.472588E+06       347.581146   344.827872E+06       183.346634
             3484   114.943968E+06   -57.468464E+06   -57.467856E+06  -2.63341821E+03   344.826048E+06      -532.344055
             3485   114.942552E+06   -57.470416E+06   -57.470372E+06      -29.6226139   344.827488E+06       251.288452
             3486    114.94352E+06   -57.470236E+06   -57.470956E+06      -77.5911407   344.827904E+06      -361.271057
             3487   114.946224E+06   -57.465292E+06   -57.465316E+06  -1.17442139E+03   344.828736E+06      -389.989746
             3488   114.884752E+06    -57.51384E+06   -57.515568E+06       310.716736   344.829472E+06       777.392517
             3489   114.965704E+06   -57.460132E+06   -57.460504E+06   5.66651611E+03    344.83488E+06       370.772949
             3490   114.921848E+06   -57.489908E+06   -57.489552E+06  -2.42626245E+03    344.83184E+06      -438.661591
             3491   114.942528E+06   -57.472188E+06   -57.472804E+06       992.675659   344.828608E+06       745.893677
             3492   114.906688E+06    -57.50408E+06   -57.504024E+06   1.84790405E+03   344.835232E+06      -637.727173
             3493   114.941784E+06   -57.471892E+06   -57.472108E+06      -395.793427   344.828224E+06      -359.799042
             3494   114.942672E+06     -57.4707E+06   -57.470908E+06      -324.883759    344.82736E+06      -66.9163513
             3495   114.938352E+06   -57.474908E+06   -57.474768E+06      -152.754929   344.827904E+06      -190.426178
             3496   114.948232E+06   -57.466816E+06   -57.466748E+06       394.151062      344.828E+06       173.975449
             3497   114.919664E+06   -57.487068E+06   -57.488272E+06  -1.09434326E+03   344.828928E+06       985.134094
             3498     114.9016E+06   -57.506984E+06    -57.50744E+06  -2.75137598E+03   344.830752E+06       374.753204
             3499   114.931976E+06   -57.477568E+06   -57.478496E+06  -1.42106323E+03   344.824224E+06       543.349609
             3500   114.946168E+06    -57.46868E+06   -57.466128E+06      -561.561035   344.829568E+06       650.267334
             3501   114.949784E+06   -57.462872E+06   -57.463116E+06       27.9838181   344.826144E+06  -1.04912158E+03
             3502   114.894152E+06    -57.51612E+06   -57.517568E+06   1.36172522E+03   344.833632E+06       478.225281
             3503   114.943896E+06   -57.469288E+06   -57.469372E+06       126.447411   344.827808E+06      -500.577240
             3504   114.944488E+06   -57.469912E+06   -57.469432E+06      -499.829254   344.827616E+06       114.288528
             3505   114.942488E+06    -57.47106E+06   -57.470948E+06       51.6658974   344.827744E+06       11.4835730
             3506   114.942856E+06   -57.471304E+06   -57.471184E+06       189.570831   344.828224E+06      -7.43874598
             3507   114.935168E+06   -57.477364E+06   -57.475708E+06      -664.338928   344.830304E+06       429.982086
             3508   114.947672E+06   -57.469944E+06   -57.468828E+06      -181.595322   344.828128E+06      -391.560852
             3509   114.917192E+06     -57.4959E+06   -57.496872E+06   4.28131885E+03    344.83408E+06      -303.229370
             3510     114.9416E+06   -57.471992E+06   -57.472096E+06       26.9142780   344.828224E+06       60.6732597
             3511   114.942584E+06   -57.471212E+06   -57.471148E+06      -53.1073112   344.827744E+06      -15.7968855
             3512     114.9436E+06   -57.469676E+06   -57.469736E+06       237.146606   344.827936E+06      -67.9291153
             3513   114.946888E+06   -57.467472E+06   -57.466564E+06      -541.078125   344.828768E+06      -291.785065
             3514   114.933968E+06   -57.481844E+06   -57.483076E+06  -1.01327582E+03   344.829408E+06      -684.659546
             3515   114.955136E+06     -57.4633E+06   -57.458604E+06      -691.882385   344.829504E+06       334.904419
             3516   114.950584E+06   -57.468244E+06   -57.467988E+06   1.93027051E+03   344.830144E+06  -1.08000586E+03
             3517   114.929048E+06   -57.487664E+06   -57.485684E+06   1.78296777E+03   344.829312E+06   1.29821606E+03
             3518   114.941288E+06    -57.47624E+06    -57.47542E+06   1.91485413E+03    344.82656E+06      -156.401062
             3519   114.960072E+06    -57.45996E+06   -57.457804E+06      -117.629150   344.826784E+06      -539.412048
             3520   114.936944E+06   -57.476104E+06   -57.476508E+06      -309.802246   344.828736E+06       75.9600296
             3521   114.942992E+06   -57.470968E+06   -57.471232E+06       48.2112007   344.827904E+06   96.2951854E-03
             3522   114.932696E+06    -57.48424E+06   -57.481048E+06   2.83471655E+03   344.828928E+06  -1.17951343E+03
             3523   114.941664E+06   -57.472316E+06   -57.472416E+06      -124.714340    344.82768E+06      -214.072693
             3524   114.942936E+06   -57.471244E+06   -57.471276E+06       99.9175339      344.828E+06      -15.0785494
             3525   114.943544E+06   -57.470436E+06    -57.47034E+06       293.680023   344.827808E+06      -73.3830872
             3526   114.944032E+06   -57.470076E+06    -57.47024E+06      -85.1492386   344.827808E+06      -17.1710320
             3527   114.942728E+06   -57.471516E+06   -57.471412E+06       141.201324   344.827968E+06       44.4232483
             3528   114.931912E+06   -57.479672E+06   -57.478276E+06   3.25394897E+03   344.827712E+06       238.551575
             3529   114.942584E+06   -57.471884E+06    -57.47176E+06       210.373779   344.828096E+06      -184.120636
             3530   114.941744E+06   -57.473468E+06   -57.472712E+06       702.410706   344.828256E+06      -49.4296532
             3531   114.950576E+06   -57.462852E+06   -57.462128E+06   2.93886841E+03   344.825312E+06      -505.336456
             3532   114.940288E+06   -57.472572E+06    -57.47262E+06      -64.0251236     344.8272E+06      -16.4787903
             3533   114.943288E+06   -57.470832E+06   -57.470936E+06       102.287933   344.827904E+06      -24.0841808
             3534   114.944536E+06   -57.469172E+06   -57.469288E+06       295.014069   344.827328E+06      -197.480087
             3535   114.977848E+06   -57.436772E+06   -57.436988E+06  -3.39959546E+03   344.819488E+06      -182.501862
             3536   114.917936E+06   -57.499484E+06   -57.501176E+06  -3.13972192E+03   344.836928E+06       984.795715
             3537   114.944448E+06   -57.470064E+06    -57.46774E+06      -26.3937912    344.82816E+06       338.164520
             3538   114.946952E+06   -57.465744E+06   -57.467856E+06       613.345825   344.826016E+06      -998.896667
             3539   114.938864E+06   -57.474316E+06   -57.473964E+06      -50.5843658   344.828352E+06       94.1520844
             3540   114.945272E+06   -57.469084E+06   -57.469124E+06      -86.4687195    344.82736E+06      -21.5074635
             3541   114.942608E+06   -57.471172E+06   -57.470956E+06       80.0652847   344.827904E+06       22.5524960
             3542   114.941528E+06    -57.47206E+06   -57.472028E+06      -51.9614067   344.828128E+06       31.6279774
             3543   114.973352E+06   -57.446776E+06   -57.447808E+06   2.54117334E+03   344.825088E+06      -2.61951804
             3544     114.9794E+06   -57.441956E+06    -57.44344E+06   2.44696265E+03    344.82256E+06   2.10895557E+03
             3545   114.942832E+06   -57.471064E+06   -57.471136E+06       73.7518768   344.827744E+06      -63.8386955
             3546   114.942776E+06   -57.472528E+06   -57.472392E+06       695.276001   344.829152E+06       709.550110
             3547    114.92952E+06   -57.481848E+06    -57.48216E+06      -446.339966    344.82736E+06      -66.8708344
             3548   114.943936E+06    -57.47084E+06   -57.470772E+06       875.944519   344.828384E+06       605.635071
             3549   114.944544E+06   -57.471244E+06   -57.470552E+06   1.31279199E+03   344.826816E+06       186.343277
             3550   114.939928E+06   -57.473704E+06   -57.472512E+06      -772.841614    344.82832E+06      -324.764526
             3551    114.98432E+06    -57.43904E+06   -57.440796E+06  -2.20410791E+03   344.827072E+06   1.06476001E+03
             3552   114.941744E+06   -57.472752E+06   -57.472892E+06      -220.561859    344.82896E+06       85.3275223
             3553   114.942896E+06   -57.467296E+06   -57.468604E+06  -1.19485742E+03   344.828448E+06      -762.095215
             3554   114.947752E+06   -57.466292E+06   -57.466972E+06      -266.697479   344.825792E+06      -565.716187
             3555   114.943904E+06   -57.470288E+06   -57.470644E+06       12.6450882   344.827296E+06      -240.150940
             3556   114.941528E+06   -57.471832E+06   -57.471924E+06      -91.4066010    344.82816E+06       80.6389313
             3557     114.9536E+06   -57.459452E+06   -57.457976E+06  -3.37043115E+03   344.824896E+06       254.742218
             3558   114.978272E+06   -57.441244E+06   -57.442088E+06  -3.68721899E+03    344.82592E+06      -376.726685
             3559   114.941936E+06   -57.472096E+06   -57.471556E+06      -73.8598022   344.828128E+06      -16.0337925
             3560   114.942704E+06     -57.4712E+06   -57.471208E+06       33.4067421   344.827936E+06      -62.1118050
             3561   114.843544E+06   -57.546152E+06    -57.54274E+06   1.06942456E+03   344.828416E+06       173.071457
             3562     114.9424E+06   -57.471568E+06   -57.471704E+06       15.2600222    344.82816E+06      -47.4334526
             3563    114.93224E+06   -57.481144E+06   -57.481676E+06       758.902100   344.831616E+06  -1.08113330E+03
             3564    114.95336E+06   -57.460636E+06   -57.459352E+06   1.11670715E+03   344.829088E+06   1.88683643E+03
             3565   114.987792E+06   -57.432584E+06   -57.434748E+06   1.89041028E+03   344.820384E+06   1.99853552E+03
             3566   114.940608E+06   -57.472008E+06   -57.471176E+06   2.41792065E+03   344.826816E+06       340.984497
             3567   114.938064E+06   -57.477336E+06   -57.476464E+06       15.6829700   344.828448E+06      -20.2755356
             3568    114.92484E+06   -57.482904E+06    -57.48372E+06      -413.082397   344.828576E+06      -172.079666
             3569   114.946752E+06     -57.4663E+06    -57.46644E+06       84.2402573   344.828512E+06       134.341858
             3570     114.9426E+06    -57.47136E+06    -57.47094E+06       75.7931137   344.827968E+06      -117.364159
             3571   114.939272E+06   -57.474132E+06    -57.47438E+06      -342.192505   344.828736E+06       111.072784
             3572    114.95576E+06   -57.459732E+06    -57.46042E+06   1.60637012E+03   344.824384E+06      -652.082764
             3573   114.942336E+06    -57.47216E+06    -57.47218E+06      -44.3200150   344.828064E+06       147.612793
             3574   114.918072E+06     -57.4914E+06   -57.489316E+06  -1.13722754E+03    344.83136E+06       656.754272
             3575   114.951168E+06   -57.463612E+06   -57.462384E+06      -755.445862   344.827264E+06   1.06097559E+03
             3576   114.941664E+06   -57.474616E+06   -57.475308E+06      -272.644165   344.828512E+06      -390.568787
             3577   114.942528E+06   -57.471168E+06    -57.47116E+06       27.3833046      344.828E+06       11.9206448
             3578   114.938576E+06   -57.480496E+06   -57.479356E+06   1.35573291E+03     344.8304E+06  -1.22148279E+03
             3579   114.943928E+06   -57.472444E+06   -57.473036E+06      -552.427612   344.828192E+06      -812.749390
             3580    114.94188E+06   -57.472416E+06   -57.472212E+06       213.701218   344.828288E+06      -212.210052
             3581    114.91884E+06   -57.493536E+06   -57.494452E+06  -1.36021143E+03   344.833248E+06       79.0258179
             3582   114.944384E+06    -57.46936E+06   -57.469296E+06       72.1593323   344.827968E+06       114.664146
             3583    114.93604E+06    -57.47648E+06   -57.476896E+06   1.79532239E+03   344.828704E+06      -195.572998
             3584   114.944936E+06    -57.46936E+06   -57.468696E+06       57.3879471      344.828E+06       183.821182
             3585   114.943864E+06   -57.474452E+06   -57.474324E+06      -99.2753296   344.832384E+06       184.932587
             3586   114.942224E+06   -57.470976E+06    -57.47136E+06      -122.579018   344.828352E+06      -161.883728
             3587   114.946088E+06   -57.468332E+06   -57.468604E+06       795.618225   344.828544E+06       182.116333
             3588   115.030784E+06   -57.399796E+06     -57.4002E+06   2.09091821E+03   344.824096E+06       385.760040
             3589   114.943456E+06     -57.4735E+06   -57.472764E+06       404.817139      344.828E+06      -515.682800
             3590   114.940744E+06   -57.472868E+06   -57.473088E+06      -129.629868      344.828E+06      -40.1102600
             3591   114.940832E+06   -57.472572E+06   -57.472612E+06      -243.599564   344.827552E+06       84.8879547
             3592   114.941488E+06   -57.472176E+06   -57.472028E+06      -54.0965233   344.827968E+06       23.9022865
             3593   114.944184E+06   -57.468948E+06   -57.468296E+06      -156.582947   344.827232E+06       323.459076
             3594   114.942328E+06   -57.470344E+06   -57.470324E+06      -106.514618   344.827744E+06       274.612488
             3595   114.944232E+06   -57.469736E+06   -57.469504E+06       172.953629   344.828064E+06       158.959091
             3596   114.947584E+06   -57.466932E+06   -57.466972E+06      -739.279724   344.827328E+06      -28.1327686
             3597   114.942744E+06   -57.471144E+06   -57.471232E+06      -395.592834    344.82752E+06      -150.670593
             3598    114.95992E+06    -57.45712E+06   -57.457076E+06  -5.34772559E+03    344.82704E+06       199.499710
             3599   114.950888E+06   -57.465532E+06   -57.464844E+06   1.40277332E+03   344.830048E+06       967.661255
             3600   114.957176E+06     -57.4557E+06   -57.454432E+06  -3.20487549E+03   344.823616E+06       199.740692
             3601   114.915376E+06   -57.497516E+06   -57.497548E+06   3.57553638E+03     344.8336E+06      -447.902039
             3602   114.935992E+06   -57.479804E+06   -57.481536E+06   3.11786328E+03    344.82992E+06      -854.341431
             3603   114.941024E+06   -57.472236E+06   -57.472208E+06      -398.095276   344.827488E+06      -57.8158112
             3604   114.940912E+06    -57.47286E+06   -57.472756E+06       198.636978   344.828288E+06      -35.5464439
             3605   114.942392E+06   -57.471312E+06   -57.471096E+06      -172.846329   344.827968E+06       64.2276764
             3606   114.942608E+06    -57.47116E+06   -57.471288E+06      -39.4800377   344.828224E+06      -113.738907
             3607   114.954272E+06   -57.461152E+06   -57.460444E+06  -1.00082471E+03   344.824512E+06      -339.766083
             3608      114.944E+06   -57.469672E+06   -57.468768E+06      -40.6345711   344.827904E+06       86.9760590
             3609   114.943048E+06   -57.470984E+06    -57.47108E+06       240.675034   344.827808E+06      -21.1254177
             3610   114.942136E+06   -57.471756E+06   -57.471516E+06      -178.498566    344.82784E+06       35.2016716
             3611   114.936984E+06   -57.477968E+06   -57.476636E+06       338.652313   344.828992E+06      -416.707672
             3612   114.962416E+06    -57.46038E+06   -57.463216E+06  -3.90344531E+03   344.830592E+06       442.774872
             3613   114.942064E+06   -57.471096E+06   -57.472236E+06       632.275085   344.827008E+06       15.7867756
             3614    114.91552E+06    -57.49756E+06    -57.49742E+06   4.04220874E+03   344.833408E+06      -416.311768
             3615   114.946928E+06   -57.467644E+06   -57.467884E+06      -880.782288   344.827328E+06      -60.8280716
             3616    114.94192E+06   -57.472396E+06   -57.472444E+06      -887.748474   344.829184E+06      -509.235474
             3617   114.941888E+06   -57.471644E+06   -57.471664E+06       157.598831   344.827904E+06      -253.046249
             3618   114.941024E+06    -57.47212E+06   -57.472144E+06      -101.157997   344.827456E+06      -48.8009300
             3619   114.942672E+06   -57.470904E+06   -57.470944E+06       20.0515690    344.82768E+06       24.1538239
             3620   114.942528E+06   -57.471656E+06     -57.4715E+06       192.494217    344.82816E+06      -61.0182877
             3621   114.944392E+06   -57.469336E+06   -57.468788E+06      -44.2578316    344.82784E+06       161.488831
             3622   114.940416E+06    -57.47338E+06    -57.47348E+06      -141.781265   344.828256E+06      -15.6089249
             3623     114.9422E+06   -57.471624E+06   -57.471776E+06       494.184326   344.827776E+06      -79.2307053
             3624   114.940344E+06   -57.473952E+06    -57.47316E+06      -40.2310638   344.828448E+06      -640.638428
             3625    114.94204E+06   -57.471996E+06   -57.471972E+06       27.8996735      344.828E+06      -100.806969
             3626   114.942248E+06   -57.471432E+06   -57.471432E+06       15.2272282   344.827744E+06      -6.79737949
             3627   114.910344E+06   -57.498636E+06   -57.498544E+06   4.64134961E+03   344.830304E+06      -12.4682522
             3628      114.942E+06   -57.471908E+06   -57.471724E+06      -196.103836   344.827808E+06      -76.2368698
             3629   114.942712E+06    -57.47208E+06   -57.473216E+06      -822.277649    344.82784E+06      -695.685791
             3630    114.94332E+06    -57.47072E+06   -57.470636E+06      -159.556564   344.827808E+06       132.512543
             3631   114.942448E+06   -57.471372E+06   -57.471464E+06       490.384491   344.827776E+06      -87.2575836
             3632   114.948216E+06   -57.466064E+06   -57.466068E+06      -725.018738   344.826944E+06      -40.6288414
             3633   114.945072E+06     -57.4678E+06   -57.468652E+06       309.230164    344.82736E+06      -255.442993
             3634     114.9424E+06   -57.471676E+06   -57.471484E+06      -11.4714336   344.828096E+06       39.7803574
             3635    114.93384E+06   -57.482708E+06    -57.48342E+06   1.81750500E+03   344.832416E+06      -187.386108
             3636     114.9428E+06   -57.471472E+06   -57.471188E+06       1.93400204   344.828192E+06       4.78740549
             3637   114.940528E+06   -57.475644E+06    -57.47414E+06      -667.463318   344.828576E+06      -155.672836
             3638    114.94044E+06     -57.4772E+06    -57.47536E+06       920.042908   344.829184E+06      -626.454895
             3639   114.945888E+06   -57.469708E+06   -57.467992E+06       266.033508   344.828672E+06       2.81593490
             3640     114.9436E+06   -57.470784E+06   -57.470884E+06      -447.845428   344.828064E+06      -46.6609192
             3641   114.944624E+06   -57.470068E+06   -57.469472E+06      -872.892517    344.82832E+06      -649.088257
             3642   114.954648E+06   -57.466408E+06    -57.46684E+06      -151.566544    344.83136E+06      -622.780579
             3643    114.94248E+06    -57.47104E+06   -57.471428E+06       195.281372   344.827584E+06       274.584167
             3644   114.943928E+06   -57.470156E+06   -57.470204E+06      -427.515106   344.827712E+06      -46.1656609
             3645   114.921896E+06   -57.486332E+06   -57.484556E+06      -97.6014481   344.830528E+06       431.792084
             3646   114.940752E+06   -57.474892E+06   -57.470376E+06       726.630798   344.827584E+06       373.036621
             3647   114.936712E+06   -57.476724E+06   -57.476068E+06  -1.29728247E+03   344.829216E+06       457.834229
             3648    114.95168E+06   -57.466552E+06    -57.46602E+06       741.512695   344.831264E+06       197.085297
             3649   114.924872E+06   -57.486364E+06   -57.485888E+06  -3.65579443E+03   344.830112E+06       285.808990
             3650    114.93928E+06   -57.474492E+06   -57.475256E+06      -183.130371    344.82832E+06       91.8034897
             3651   114.944696E+06   -57.469468E+06   -57.469424E+06       255.680359   344.827648E+06       190.076538
             3652   114.943168E+06   -57.470668E+06   -57.470648E+06       3.84550238   344.827648E+06       5.28494310
             3653   114.930208E+06   -57.478636E+06   -57.481668E+06   1.79724548E+03   344.829536E+06  -1.06911572E+03
             3654    114.93984E+06    -57.47316E+06   -57.473344E+06      -365.868927   344.826848E+06      -694.764526
             3655   114.944096E+06   -57.469824E+06   -57.469956E+06       340.961609    344.82784E+06       281.118195
             3656   114.942408E+06   -57.471656E+06   -57.471696E+06       202.289215   344.827872E+06       18.8061562
             3657   114.944672E+06   -57.469796E+06   -57.468524E+06      -962.056335   344.826464E+06  -1.14265674E+03
             3658   114.948184E+06   -57.465812E+06    -57.46572E+06      -458.569916   344.826912E+06       91.9647675
             3659   114.940736E+06   -57.473108E+06   -57.472952E+06       419.564423   344.828416E+06      -88.9440536
             3660   114.898512E+06     -57.5018E+06    -57.50278E+06   3.64315942E+03    344.82992E+06   1.97530908E+03
             3661   114.942832E+06   -57.471104E+06   -57.471164E+06      -70.3762131   344.828032E+06      -126.453293
             3662   114.941304E+06   -57.472788E+06   -57.473652E+06       532.495911   344.828256E+06       449.518799
             3663   114.931608E+06    -57.48338E+06    -57.48132E+06  -1.85261707E+03   344.832768E+06   1.25913330E+03
             3664   114.938504E+06   -57.475192E+06   -57.475036E+06       3.42527914   344.828736E+06       253.899200
             3665    114.93744E+06   -57.477796E+06   -57.476936E+06  -1.13845264E+03   344.829824E+06   1.45279529E+03
             3666     114.9514E+06   -57.466788E+06   -57.465156E+06       606.631409    344.82944E+06   1.87571912E+03
             3667   114.942896E+06   -57.471188E+06    -57.47106E+06      -1.97589564   344.827872E+06      -72.5055695
             3668   114.940936E+06   -57.472024E+06   -57.472424E+06       323.492737   344.828032E+06      -305.672424
             3669   114.952056E+06   -57.463004E+06   -57.459516E+06       853.007751   344.825376E+06   1.68489307E+03
             3670   114.953264E+06   -57.461796E+06   -57.461272E+06   1.48344519E+03    344.82912E+06   1.97722839E+03
             3671   114.942968E+06   -57.469652E+06   -57.469908E+06   1.19297388E+03    344.82832E+06       374.818085
             3672   114.941344E+06   -57.472348E+06    -57.47232E+06      -487.354675   344.827904E+06      -44.9647369
             3673   114.945752E+06    -57.46922E+06   -57.469272E+06       307.635681   344.828448E+06      -11.6705770
             3674   114.942184E+06   -57.471784E+06   -57.471628E+06       49.9638176   344.828192E+06      -94.3088608
             3675    114.91444E+06   -57.489264E+06   -57.489468E+06   4.82712549E+03   344.827584E+06   1.37474292E+03
             3676   114.947728E+06   -57.465384E+06   -57.464352E+06      -220.498322   344.828096E+06       86.9176941
             3677   114.942768E+06   -57.471312E+06   -57.469876E+06       7.18627453   344.828384E+06       963.545349
             3678   114.927336E+06   -57.479568E+06   -57.479652E+06  -6.91892676E+03   344.823712E+06      -425.538452
             3679   114.945512E+06   -57.464268E+06   -57.464332E+06       472.240082   344.823552E+06      -360.937378
             3680   114.951232E+06   -57.462632E+06   -57.463496E+06   3.52708081E+03   344.824672E+06       81.2745285
             3681   114.932024E+06   -57.482648E+06   -57.483008E+06      -159.280945   344.828864E+06  -1.05112915E+03
             3682   114.941776E+06   -57.472212E+06   -57.472632E+06      -667.703125   344.827584E+06      -499.622864
             3683   114.949384E+06   -57.465232E+06   -57.465364E+06      -231.414963   344.827424E+06      -566.617188
             3684    114.94456E+06   -57.469708E+06   -57.472044E+06      -29.0290070   344.827936E+06      -661.252747
             3685    114.90508E+06   -57.503708E+06   -57.502424E+06   3.93238574E+03   344.829664E+06       110.836105
             3686    114.94756E+06   -57.464944E+06   -57.464788E+06       93.2099075   344.829024E+06  -1.26343542E+03
             3687   114.932352E+06    -57.47824E+06   -57.478332E+06  -1.48971021E+03   344.828672E+06      -621.995422
             3688   114.942984E+06   -57.470652E+06   -57.471056E+06       26.7037048   344.827552E+06       328.949890
             3689    114.94248E+06   -57.471312E+06   -57.471468E+06  -864.794612E-03   344.827808E+06       20.6892185
             3690   114.950272E+06   -57.462824E+06   -57.462652E+06       583.765137    344.82496E+06      -63.5103531
             3691   114.943704E+06   -57.469788E+06   -57.470412E+06      -13.9786415   344.828032E+06      -507.967865
             3692   114.952608E+06   -57.463416E+06   -57.464828E+06      -633.354675   344.828128E+06   1.54464136E+03
             3693    114.94192E+06   -57.475864E+06   -57.474592E+06  -1.38788977E+03   344.830464E+06      -91.4620514
             3694   114.936888E+06   -57.476736E+06   -57.477152E+06   1.00571387E+03   344.828384E+06   1.29940698E+03
             3695   114.926872E+06   -57.486008E+06   -57.484532E+06   2.84649341E+03   344.832768E+06       450.475586
             3696    114.94204E+06   -57.471996E+06   -57.471832E+06       98.1895523   344.828064E+06      -78.6941299
             3697     114.9374E+06   -57.475208E+06   -57.475232E+06   1.16725610E+03   344.827008E+06      -83.6170197
             3698   114.942776E+06   -57.471432E+06   -57.471188E+06       70.8600998   344.828224E+06      -173.631592
             3699   114.941336E+06   -57.472924E+06   -57.473308E+06       80.8351059   344.828192E+06      -192.193298
             3700   114.943032E+06   -57.471468E+06   -57.471516E+06      -230.903214   344.827936E+06       124.303062
             3701   114.944496E+06   -57.469328E+06   -57.469376E+06      -827.012512   344.827264E+06      -42.8450356
             3702   114.940808E+06   -57.472784E+06     -57.4725E+06      -155.460480   344.828256E+06      -125.746193
             3703   114.942128E+06   -57.471816E+06   -57.471904E+06       246.946274   344.828192E+06       114.364700
             3704     114.9482E+06   -57.470288E+06   -57.471948E+06   1.47420056E+03   344.831328E+06       181.336609
             3705   114.942408E+06   -57.471488E+06    -57.47214E+06       122.718674   344.827552E+06       131.574341
             3706   114.949176E+06   -57.472072E+06   -57.473668E+06      -761.846924   344.832064E+06  -1.39596521E+03
             3707   114.940656E+06    -57.47322E+06   -57.473044E+06       259.358246    344.82832E+06      -43.6668167
             3708   114.943944E+06   -57.470012E+06    -57.46996E+06      -98.8473129    344.82752E+06       106.960655
             3709     114.9302E+06   -57.481364E+06   -57.479896E+06       332.252930   344.830912E+06      -705.487671
             3710   114.940152E+06   -57.473444E+06   -57.473588E+06       125.798546   344.828192E+06      -105.293556
             3711   114.943592E+06   -57.470408E+06   -57.470548E+06       51.4071922   344.827808E+06      -139.614304
             3712    114.93992E+06   -57.472424E+06   -57.473944E+06  -4.03713916E+03   344.825344E+06      -91.1543350
             3713   114.948736E+06   -57.466448E+06   -57.465364E+06      -661.897095   344.828864E+06      -587.352661
             3714   114.940056E+06   -57.473264E+06   -57.472716E+06      -306.500916    344.82832E+06      -262.493683
             3715   114.940384E+06   -57.473424E+06   -57.473612E+06      -200.068176    344.82848E+06       165.593674
             3716   114.846816E+06   -57.543548E+06   -57.540172E+06   1.74735779E+03   344.828256E+06       45.4881325
             3717    114.91044E+06   -57.489456E+06   -57.486064E+06  -2.86695728E+03   344.823456E+06      -61.5877762
             3718   114.942128E+06   -57.472044E+06   -57.471608E+06       64.1714859    344.82768E+06      -61.0946617
             3719   114.914928E+06   -57.496476E+06   -57.496824E+06       285.040527   344.832256E+06      -395.300781
             3720    114.94184E+06   -57.471692E+06   -57.471868E+06       37.1704025    344.82784E+06       49.7912369
             3721   114.943352E+06    -57.47162E+06   -57.470456E+06   1.40028430E+03   344.828224E+06  -1.11487695E+03
             3722   114.991568E+06   -57.430684E+06   -57.430876E+06   6.00430664E+03   344.825408E+06      -405.670715
             3723   114.942632E+06   -57.471424E+06   -57.471636E+06      -255.331146    344.82816E+06      -13.0091887
             3724   114.943128E+06   -57.470908E+06   -57.470944E+06      -226.713608   344.827776E+06      -31.8384285
             3725    114.91976E+06   -57.489888E+06   -57.489624E+06  -6.73343555E+03   344.828672E+06       250.975784
             3726    114.93968E+06   -57.473732E+06   -57.473184E+06      -448.368805   344.828256E+06       267.574982
             3727      114.946E+06    -57.46862E+06   -57.466388E+06  -1.07271814E+03   344.828992E+06       889.339050
             3728   114.943192E+06   -57.471228E+06   -57.470816E+06       480.901031   344.827872E+06      -95.7821503
             3729     114.9416E+06   -57.472476E+06   -57.472504E+06       237.177078   344.828256E+06       90.6337585
             3730   114.944192E+06   -57.469896E+06     -57.4697E+06       667.158203   344.828032E+06      -79.0102081
             3731   114.947768E+06   -57.466008E+06    -57.46696E+06      -142.317307   344.825312E+06       133.415283
             3732     114.9412E+06    -57.47234E+06   -57.472468E+06      -115.627083   344.828192E+06       266.379333
             3733   114.941416E+06   -57.473968E+06   -57.472608E+06       357.302673   344.828608E+06      -56.3752213
             3734   114.956552E+06   -57.458604E+06     -57.4591E+06   4.29581982E+03   344.825984E+06       234.628448
             3735   114.945792E+06   -57.467788E+06   -57.467328E+06      -208.089645   344.828192E+06       400.991943
             3736   114.943184E+06    -57.47094E+06     -57.4708E+06       309.995880   344.828224E+06      -173.379547
             3737   114.940632E+06   -57.473012E+06   -57.473068E+06      -64.9895477   344.828256E+06       195.657043
             3738   114.967032E+06   -57.452192E+06   -57.452352E+06      -304.130096      344.828E+06       80.5542221
             3739   114.908632E+06   -57.498772E+06   -57.497112E+06   2.90231958E+03   344.828032E+06       39.4244843
             3740   115.002112E+06   -57.425052E+06   -57.426864E+06  -6.36418848E+03   344.829344E+06      -150.591843
             3741    114.94376E+06   -57.469908E+06   -57.472008E+06   1.03115222E+03   344.829056E+06       257.754547
             3742   114.940176E+06   -57.473044E+06   -57.473144E+06      -754.668640   344.827808E+06      -2.56106281
             3743   114.967128E+06    -57.45462E+06   -57.455336E+06   2.93407935E+03   344.829824E+06      -270.678497
             3744    114.95244E+06   -57.466452E+06   -57.466724E+06  -1.19515735E+03   344.829312E+06      -331.988617
             3745   114.941408E+06   -57.472352E+06   -57.471544E+06       67.7871933   344.827904E+06      -181.187653
             3746   114.938312E+06   -57.474568E+06   -57.474536E+06      -151.493637   344.827616E+06      -72.2940292
             3747    114.94332E+06   -57.470668E+06   -57.470768E+06      -336.609619   344.827904E+06       51.6872368
             3748   114.943544E+06     -57.4705E+06   -57.470496E+06      -47.7123985   344.827872E+06      -67.2319412
             3749   114.942808E+06   -57.471308E+06   -57.471488E+06      -568.107056   344.827936E+06      -11.1084137
             3750    114.94128E+06     -57.4725E+06    -57.47108E+06  -1.66325610E+03   344.825344E+06       497.820496
             3751   114.941888E+06   -57.471756E+06   -57.471864E+06      -579.971924    344.82768E+06      -18.5086575
             3752   114.943632E+06   -57.470332E+06   -57.470492E+06      -103.488403   344.827808E+06       32.4137802
             3753   114.945416E+06   -57.467536E+06   -57.466404E+06       609.672913     344.8272E+06      -297.268463
             3754   114.945224E+06     -57.4697E+06   -57.469896E+06       451.422272   344.828352E+06      -36.9429741
             3755   114.953856E+06   -57.460776E+06   -57.464332E+06  -4.51269775E+03    344.82784E+06  -1.04291235E+03
             3756   114.948496E+06   -57.468972E+06   -57.467936E+06       323.658966     344.8296E+06      -817.721619
             3757   114.946056E+06   -57.468252E+06   -57.468176E+06      -842.232666   344.826912E+06      -144.055054
             3758   114.933712E+06      -57.479E+06   -57.479204E+06      -129.175003    344.82864E+06      -38.6744576
             3759   114.943184E+06   -57.471588E+06   -57.471072E+06      -709.273315   344.827488E+06      -397.850525
             3760   114.942776E+06    -57.47006E+06   -57.470248E+06      -32.2576561   344.827744E+06      -137.607803
             3761   114.942704E+06   -57.470212E+06   -57.468896E+06      -361.217773    344.82816E+06      -194.684708
             3762   114.960688E+06     -57.4613E+06   -57.460176E+06      -661.255615   344.828992E+06       494.503998
             3763    114.94076E+06   -57.473164E+06   -57.473244E+06       427.339722    344.82848E+06      -14.1491528
             3764   114.944576E+06    -57.47006E+06   -57.470052E+06       443.416595   344.828256E+06      -5.76345158
             3765   114.939216E+06   -57.474804E+06   -57.474772E+06   1.02122388E+03   344.828832E+06       6.89055777
             3766   114.946928E+06   -57.466876E+06   -57.467688E+06       349.975769   344.827264E+06       698.745361
             3767   114.940416E+06   -57.473308E+06      -57.473E+06      -991.837585    344.82672E+06       576.082764
             3768      114.941E+06    -57.47342E+06   -57.473348E+06       548.712524   344.828768E+06      -62.8118286
             3769   114.944496E+06   -57.470448E+06   -57.470028E+06       169.318085   344.826848E+06       84.3458557
             3770   114.941504E+06   -57.472268E+06   -57.472228E+06      -369.003479   344.827936E+06       67.7210464
             3771   114.945984E+06   -57.464964E+06   -57.464788E+06      -76.6910172   344.827488E+06       457.727112
             3772   114.940528E+06   -57.473084E+06   -57.472984E+06      -93.5235977   344.828096E+06      -126.770416
             3773   114.943368E+06   -57.470648E+06   -57.470612E+06      -268.030457   344.827776E+06       60.6354370
             3774   114.942704E+06   -57.471416E+06    -57.47136E+06      -145.757477   344.828192E+06       117.705162
             3775   114.940808E+06   -57.472316E+06   -57.472716E+06       170.096252    344.82816E+06       121.669289
             3776   114.943856E+06   -57.470684E+06   -57.470188E+06       55.7876053   344.828288E+06      -238.479172
             3777   114.943144E+06   -57.470952E+06   -57.470612E+06       56.9142227   344.828096E+06       254.535767
             3778   114.941584E+06   -57.472536E+06   -57.473044E+06      -88.1570587   344.828288E+06      -482.992371
             3779   114.941328E+06     -57.4728E+06   -57.472496E+06      -84.7743759   344.827904E+06      -75.2408600
             3780    114.94104E+06   -57.472672E+06   -57.472572E+06      -94.2016449   344.828096E+06      -126.564636
             3781   114.943472E+06   -57.470704E+06   -57.470552E+06       78.9813995   344.828064E+06      -89.5537872
             3782   114.942464E+06   -57.471584E+06   -57.471404E+06       5.80116463   344.828288E+06      -110.884323
             3783   114.942136E+06   -57.471832E+06   -57.471896E+06       126.317108   344.828128E+06       92.7464218
             3784   114.946184E+06   -57.468316E+06   -57.468216E+06       181.526276   344.827712E+06      -110.044189
             3785    114.94284E+06    -57.47102E+06   -57.471064E+06      -96.6339264   344.827936E+06       56.8186378
             3786   114.945208E+06   -57.469528E+06   -57.469656E+06       451.022156   344.828224E+06      -51.6209335
             3787   114.942024E+06   -57.471732E+06   -57.471776E+06       90.7509842      344.828E+06       22.9550533
             3788   114.942496E+06   -57.471704E+06     -57.4717E+06      -43.0888405   344.828032E+06      -37.8868942
             3789   114.946944E+06   -57.466476E+06   -57.464476E+06      -201.386520     344.8288E+06       683.699036
             3790   114.948456E+06      -57.467E+06   -57.466972E+06       174.762741   344.828192E+06      -46.3258438
             3791   114.912792E+06   -57.497496E+06     -57.4967E+06      -840.389954   344.832256E+06       338.192200
             3792   114.942984E+06     -57.4711E+06   -57.471024E+06      -220.773499   344.827968E+06      -6.23970985
             3793   114.942048E+06   -57.471768E+06     -57.4718E+06       84.5886154   344.828032E+06   351.834059E-03
             3794   114.943592E+06   -57.470048E+06     -57.4695E+06      -230.692505   344.828352E+06       159.903641
             3795   114.942552E+06   -57.471576E+06   -57.471692E+06      -108.499146   344.828288E+06      -47.9591522
             3796   114.941856E+06   -57.471892E+06   -57.471936E+06       86.6938858   344.828032E+06       23.1710739
             3797   114.942648E+06    -57.47138E+06   -57.471228E+06       23.8599911   344.827904E+06      -111.942108
             3798   114.941864E+06   -57.471896E+06   -57.471732E+06      -261.942078   344.827936E+06       49.2997780
             3799   114.942112E+06    -57.47156E+06   -57.470712E+06       162.201233    344.82752E+06       40.1821556
             3800   114.942632E+06    -57.47074E+06   -57.471036E+06       149.352737   344.827328E+06      -261.610474
             3801    114.93324E+06   -57.479228E+06   -57.479348E+06   1.49474927E+03     344.8296E+06      -581.217712
             3802    114.88964E+06   -57.515572E+06    -57.51502E+06  -6.86914014E+03    344.83168E+06       804.709839
             3803   114.943256E+06    -57.47064E+06   -57.470704E+06       115.884789   344.828032E+06       74.0187454
             3804   114.939816E+06   -57.471512E+06    -57.47114E+06       227.619446   344.826464E+06      -268.083832
             3805   114.944136E+06   -57.469324E+06   -57.469564E+06       193.596069   344.826496E+06  -1.74262671E+03
             3806   114.942168E+06    -57.46808E+06   -57.469724E+06       611.299377   344.828576E+06      -161.231750
             3807   114.949848E+06    -57.46732E+06   -57.464448E+06      -604.305237   344.826528E+06      -72.8722305
             3808   114.949968E+06   -57.465016E+06   -57.464424E+06  -1.61300244E+03   344.826848E+06       192.111572
             3809   114.953016E+06    -57.46318E+06    -57.46424E+06   1.05574011E+03    344.82608E+06  -1.55259509E+03
             3810   114.941192E+06   -57.471408E+06    -57.47034E+06   2.25098120E+03   344.825952E+06      -51.5967255
             3811    114.94804E+06   -57.465688E+06   -57.465672E+06       105.594490   344.826848E+06      -521.363037
             3812   114.981464E+06    -57.44214E+06   -57.441464E+06   7.28858252E+03   344.829856E+06       755.767761
             3813   114.933376E+06   -57.479124E+06   -57.480336E+06   3.99494385E+03   344.827488E+06      -884.595642
             3814   114.942776E+06   -57.471144E+06   -57.471392E+06       196.703369   344.827872E+06      -15.2421799
             3815   114.940064E+06   -57.473384E+06   -57.473264E+06      -200.108444   344.827776E+06      -407.279327
             3816   114.949472E+06   -57.458456E+06   -57.460596E+06   3.16662329E+03   344.825152E+06       170.744370
             3817   114.945432E+06   -57.468708E+06   -57.467144E+06       532.736328   344.827872E+06       420.075317
             3818    114.94136E+06   -57.472836E+06   -57.472788E+06           -385.5   344.828032E+06      -196.194382
             3819   114.909464E+06   -57.493252E+06    -57.49222E+06   1.24985461E+03   344.825088E+06      -705.321167
             3820   114.944688E+06   -57.469548E+06   -57.467892E+06   2.58961230E+03   344.825536E+06      -388.681885
             3821    114.94548E+06   -57.468816E+06   -57.469124E+06      -607.629272   344.827744E+06      -160.242126
             3822    114.94332E+06   -57.470272E+06    -57.46978E+06      -15.1403885   344.827872E+06       195.183319
             3823    114.94672E+06   -57.468404E+06   -57.468012E+06      -143.813324   344.828096E+06      -217.667038
             3824    114.95948E+06   -57.456472E+06   -57.457044E+06  -2.94065771E+03   344.823328E+06      -898.371094
             3825   114.948464E+06   -57.466156E+06   -57.467896E+06       848.386719   344.828416E+06      -619.373413
             3826   114.943704E+06    -57.47036E+06   -57.470332E+06       760.715576   344.827808E+06       38.1305504
             3827      114.948E+06   -57.469496E+06   -57.469608E+06      -582.431763   344.828448E+06      -778.046997
             3828   114.945752E+06   -57.469112E+06   -57.469104E+06       473.339966   344.828224E+06      -111.855186
             3829    114.94348E+06   -57.471232E+06   -57.472496E+06      -246.010315   344.828192E+06      -956.369141
             3830   114.954808E+06   -57.464804E+06   -57.464944E+06      -407.002197   344.831264E+06       160.785614
             3831    114.94944E+06   -57.463916E+06   -57.463944E+06   2.24085034E+03   344.823936E+06      -607.987061
             3832    114.94744E+06   -57.467444E+06   -57.467312E+06      -74.1247864   344.827328E+06      -203.463074
             3833   114.945824E+06     -57.4687E+06   -57.468564E+06      -74.0854340   344.827328E+06      -201.039352
             3834   114.931968E+06   -57.479932E+06   -57.479024E+06   2.02876379E+03    344.82768E+06      -257.079742
             3835   114.918496E+06    -57.48362E+06   -57.485936E+06   3.97528638E+03    344.82624E+06       139.998596
             3836    114.94208E+06   -57.472072E+06   -57.472064E+06       244.000656   344.828288E+06      -119.388725
             3837   114.928288E+06   -57.478444E+06   -57.477904E+06  -2.06383374E+03   344.826336E+06      -85.1865311
             3838   114.936504E+06    -57.47466E+06   -57.476456E+06      -739.370605   344.827392E+06       78.6937943
             3839   114.945632E+06   -57.469476E+06   -57.469208E+06       398.186676   344.828096E+06      -74.3094940
             3840   114.942056E+06   -57.471192E+06   -57.471508E+06       42.2623482   344.828032E+06      -154.782806
             3841   114.939872E+06   -57.475152E+06   -57.476348E+06      -629.679504   344.828992E+06       229.012299
             3842   114.950384E+06   -57.464268E+06   -57.464596E+06   1.96117603E+03   344.824704E+06       162.897858
             3843   114.900016E+06   -57.505292E+06   -57.501668E+06   3.25528638E+03    344.83264E+06       669.042114
             3844   114.975208E+06   -57.446028E+06   -57.443792E+06       473.150116    344.82768E+06      -361.131561
             3845   114.943272E+06   -57.470276E+06   -57.470152E+06       170.821014   344.827744E+06      -34.6474457
             3846   114.941176E+06   -57.472592E+06   -57.472788E+06      -497.302185   344.827392E+06      -15.6762009
             3847    114.94024E+06   -57.473652E+06   -57.473804E+06       84.3425522   344.828448E+06       150.921432
             3848   115.039792E+06   -57.396708E+06   -57.395504E+06  -5.07452734E+03   344.822912E+06       99.5568542
             3849   114.933584E+06    -57.48038E+06    -57.47886E+06  -4.26427734E+03   344.824608E+06       821.876160
             3850   114.943592E+06   -57.470696E+06   -57.471092E+06       373.207062   344.829472E+06      -311.289124
             3851    114.94044E+06   -57.472624E+06   -57.471864E+06      -511.215332    344.82816E+06      -336.037109
             3852   114.942664E+06   -57.470944E+06   -57.470936E+06      -20.7446537   344.827808E+06      -42.2509155
             3853   114.943192E+06   -57.470576E+06   -57.470456E+06       485.988678    344.82784E+06      -212.026901
             3854   114.936496E+06   -57.476072E+06   -57.476448E+06  -1.15234265E+03    344.82864E+06       101.718170
             3855   114.939784E+06      -57.476E+06   -57.474392E+06      -464.163635     344.8264E+06      -784.650085
             3856    114.87312E+06   -57.527904E+06   -57.527616E+06  -1.87562207E+03   344.829312E+06      -932.928955
             3857   114.934504E+06   -57.477664E+06   -57.477816E+06   1.15172241E+03   344.827872E+06       146.927597
             3858    114.94252E+06   -57.471512E+06     -57.4715E+06       111.105598      344.828E+06       99.5799484
             3859     114.9398E+06   -57.473724E+06    -57.47382E+06      -248.451218   344.828192E+06      -40.7646217
             3860   114.945736E+06   -57.464344E+06   -57.467644E+06   1.43100330E+03   344.825312E+06       707.722046
             3861   114.941976E+06   -57.471808E+06   -57.472084E+06      -32.6131248   344.827904E+06      -16.6109314
             3862   114.915872E+06   -57.494628E+06   -57.494632E+06   3.44748047E+03   344.828448E+06       347.467651
             3863    114.94124E+06   -57.471592E+06   -57.471716E+06  -2.18177832E+03   344.827392E+06       428.730011
             3864   114.943504E+06   -57.470548E+06   -57.470084E+06       369.375702   344.828064E+06      -8.21975422
             3865   114.936088E+06   -57.478084E+06   -57.478344E+06       771.635864   344.830912E+06      -237.110062
             3866    114.91644E+06   -57.489612E+06   -57.491336E+06      -197.116898   344.823936E+06       932.693359
             3867     114.9436E+06   -57.470592E+06   -57.470596E+06       95.9759674    344.82752E+06      -152.778198
             3868   114.945824E+06   -57.467988E+06   -57.467388E+06       785.694214    344.82448E+06       417.615326
             3869   114.944256E+06    -57.46974E+06    -57.46966E+06      -19.2111340   344.827776E+06       14.9796124
             3870   114.941616E+06   -57.472364E+06   -57.472464E+06       521.475769   344.827936E+06      -47.2886963
             3871   114.942632E+06   -57.471588E+06   -57.471576E+06       16.3131504   344.828416E+06       103.892960
             3872    114.94288E+06   -57.471136E+06   -57.470736E+06       21.6706676   344.828032E+06       59.8850136
             3873   114.942992E+06   -57.471648E+06   -57.472312E+06   5.52752686E+03   344.830144E+06      -608.350037
             3874   114.942232E+06   -57.471756E+06   -57.471476E+06       274.591095   344.827904E+06      -89.8876419
             3875   114.941384E+06   -57.475628E+06   -57.476036E+06      -56.5910873   344.828384E+06       36.0250549
             3876   114.916976E+06   -57.491796E+06    -57.49254E+06   3.65166748E+03   344.829952E+06      -541.747498
             3877   114.942448E+06   -57.471376E+06   -57.471484E+06       38.6733665      344.828E+06      -47.1809921
             3878   114.943408E+06    -57.47262E+06   -57.470892E+06   1.19970776E+03   344.829184E+06   1.29048633E+03
             3879   114.993064E+06   -57.428416E+06   -57.431024E+06   9.13132715E+03   344.820128E+06       931.470825
             3880    114.95468E+06   -57.457388E+06   -57.458016E+06  -2.17381177E+03    344.82464E+06       211.480011
             3881   114.956256E+06    -57.46306E+06   -57.461832E+06       617.405945   344.827392E+06       215.021896
             3882   114.943808E+06   -57.471112E+06   -57.469796E+06      -273.186249   344.827456E+06       947.413330
             3883   114.942616E+06   -57.470976E+06    -57.47124E+06      -516.671997   344.828096E+06      -244.614655
             3884    114.96928E+06   -57.445756E+06     -57.4466E+06  -2.34988940E+03   344.823648E+06       472.258728
             3885    114.93584E+06    -57.46942E+06   -57.469156E+06   1.68057983E+03   344.826944E+06       884.372803
             3886   114.942768E+06   -57.470648E+06    -57.47088E+06      -29.0531101    344.82784E+06       133.916550
             3887       114.94E+06   -57.472944E+06    -57.47316E+06       111.809464    344.82784E+06      -121.235718
             3888     114.9162E+06   -57.493568E+06    -57.49272E+06  -1.42706555E+03   344.830912E+06       528.779114
             3889   114.960952E+06   -57.453376E+06   -57.452884E+06   1.76067041E+03    344.82464E+06       719.689697
             3890    114.94216E+06   -57.477748E+06   -57.476804E+06      -784.669678   344.830912E+06       918.751892
             3891   114.940608E+06   -57.474492E+06   -57.477432E+06   1.27849878E+03   344.828032E+06       719.080078
             3892   114.933344E+06    -57.47898E+06    -57.48306E+06  -1.12554260E+03   344.828416E+06      -101.357231
             3893   114.899472E+06    -57.50364E+06   -57.503552E+06  -2.55498853E+03   344.826112E+06       7.19849539
             3894   114.926264E+06   -57.492416E+06   -57.489808E+06   2.53703394E+03   344.832704E+06  -1.15772229E+03
             3895   114.946568E+06     -57.4698E+06   -57.467616E+06   1.32629919E+03   344.829888E+06       637.663025
             3896     114.9414E+06   -57.471984E+06   -57.472544E+06      -901.427246   344.827776E+06      -640.239014
             3897   114.978584E+06   -57.445824E+06    -57.44574E+06   2.13887793E+03   344.829856E+06      -391.270538
             3898   114.939472E+06   -57.475344E+06   -57.476788E+06      -764.489502   344.829088E+06       352.530396
             3899   114.949984E+06   -57.464696E+06   -57.463796E+06   1.34276794E+03     344.8256E+06       64.9329224
             3900   114.938728E+06   -57.473196E+06   -57.473708E+06       758.623474   344.826528E+06      -111.644104
             3901   114.945096E+06    -57.46946E+06   -57.469392E+06      -439.270508   344.828608E+06      -255.533478
             3902   114.930128E+06   -57.480176E+06   -57.481764E+06  -1.39305151E+03   344.829664E+06      -202.168015
             3903   114.951272E+06   -57.464796E+06   -57.466124E+06       243.583282   344.828128E+06  -2.03931018E+03
             3904   114.935408E+06   -57.478956E+06   -57.479036E+06   1.21192163E+03   344.829376E+06       47.1947708
             3905   114.948048E+06   -57.466392E+06    -57.46568E+06       177.689194   344.826976E+06       212.245392
             3906   114.939232E+06     -57.4745E+06   -57.473412E+06      -424.118011   344.827744E+06      -233.007919
             3907    114.94468E+06   -57.469848E+06   -57.469832E+06       647.343506      344.828E+06      -39.8221626
             3908    114.94076E+06    -57.47252E+06   -57.474368E+06       967.044983   344.827648E+06       279.287933
             3909   114.942552E+06    -57.47156E+06   -57.471572E+06       145.209763   344.827968E+06      -1.62961125
             3910    114.94444E+06   -57.469748E+06   -57.468584E+06      -37.3946915   344.827584E+06      -93.4837799
             3911   114.961232E+06    -57.45994E+06     -57.4569E+06      -214.018494   344.830016E+06      -34.4491920
             3912   114.938096E+06   -57.474324E+06   -57.473196E+06      -256.701477   344.828896E+06      -455.676544
             3913   114.942496E+06    -57.47188E+06   -57.471832E+06      -89.8349075   344.828224E+06       83.0536880
             3914   114.934192E+06    -57.47622E+06    -57.47554E+06  -2.48197852E+03   344.829024E+06      -398.227875
             3915   114.942904E+06   -57.470712E+06   -57.469728E+06      -775.940491   344.828224E+06  -1.18633459E+03
             3916   114.934768E+06   -57.482136E+06   -57.480316E+06  -2.10176392E+03   344.830912E+06      -10.3049822
             3917    114.94636E+06   -57.468176E+06    -57.46796E+06       107.023247   344.827232E+06      -24.9301147
             3918   114.941208E+06     -57.4687E+06   -57.470664E+06      -513.530945   344.826592E+06       796.847900
             3919    114.94256E+06   -57.471924E+06   -57.471852E+06      -635.690491   344.828768E+06       121.743385
             3920   114.945368E+06   -57.469644E+06    -57.46972E+06      -374.749756   344.828416E+06       89.8695831
             3921   115.021904E+06   -57.399644E+06    -57.39826E+06   3.98532324E+03   344.817344E+06      -442.085388
             3922   114.963144E+06    -57.45974E+06   -57.456636E+06   1.17668860E+03   344.832192E+06       195.819916
             3923    114.92188E+06   -57.486516E+06   -57.485672E+06      -558.055847   344.829632E+06      -514.408203
             3924   114.923144E+06   -57.484932E+06   -57.485052E+06  -2.97195850E+03   344.825408E+06      -470.604614
             3925   114.934208E+06   -57.474368E+06   -57.476348E+06       16.1726933   344.826176E+06      -349.542053
             3926   114.944024E+06    -57.47624E+06    -57.48024E+06       27.8816738   344.830624E+06      -138.106079
             3927   114.944552E+06   -57.470388E+06   -57.470316E+06      -285.803894   344.828448E+06       48.6174316
             3928   114.993776E+06   -57.427976E+06   -57.426688E+06  -4.65826563E+03   344.823488E+06       337.903900
             3929   114.942896E+06     -57.4707E+06   -57.470244E+06      -106.231697   344.827712E+06      -71.8686142
             3930   114.942544E+06   -57.471832E+06   -57.470496E+06      -196.969742    344.82784E+06      -13.3708811
             3931   114.951144E+06   -57.466692E+06   -57.465036E+06  -2.92839355E+03   344.830464E+06       39.0436363
             3932    114.94296E+06   -57.471044E+06   -57.470956E+06       3.56230497   344.827776E+06      -91.8112640
             3933   114.952984E+06    -57.46598E+06   -57.464444E+06   1.79817053E+03   344.826784E+06       96.6475143
             3934   114.936008E+06   -57.477192E+06   -57.475892E+06  -4.20817334E+03   344.827936E+06       336.286957
             3935   114.942496E+06   -57.472084E+06   -57.471984E+06       107.887573    344.82848E+06       133.309021
             3936   114.932008E+06   -57.476776E+06    -57.47766E+06       432.146332    344.82688E+06      -586.550964
             3937   114.941976E+06   -57.471772E+06   -57.472072E+06       12.1021433   344.827904E+06      -16.4056644
             3938   114.945784E+06   -57.467648E+06   -57.466812E+06      -389.892975   344.826752E+06       13.9508858
             3939   114.943144E+06   -57.470544E+06   -57.470208E+06       24.2079830    344.82784E+06      -92.5961914
             3940   114.942912E+06   -57.470788E+06   -57.470804E+06      -4.66605616   344.827744E+06       65.4195938
             3941   114.942952E+06   -57.470808E+06    -57.47092E+06       25.8104115   344.827904E+06      -13.1732807
             3942   114.943144E+06   -57.470864E+06   -57.471104E+06       46.8117447   344.828192E+06       8.27778435
             3943   114.943208E+06   -57.470828E+06   -57.470864E+06      -39.7703056   344.827904E+06      -140.867844
             3944   114.943248E+06   -57.470608E+06   -57.470636E+06      -65.2777710   344.827808E+06      -155.433136
             3945   114.942416E+06    -57.47156E+06   -57.471464E+06       34.5074768    344.82784E+06      -100.873367
             3946   114.943576E+06   -57.468248E+06   -57.471172E+06       307.833069   344.827072E+06      -469.627045
             3947   114.934872E+06    -57.48012E+06   -57.479976E+06       650.203430   344.829824E+06       370.887817
             3948   114.947912E+06   -57.466848E+06   -57.466848E+06       60.9775734   344.827552E+06       366.817047
             3949   114.943856E+06   -57.469948E+06   -57.470028E+06       384.921600   344.827808E+06       319.734772
             3950    114.91456E+06   -57.495752E+06   -57.494536E+06       181.271057    344.83264E+06      -490.513611
             3951   114.942656E+06   -57.471584E+06    -57.47158E+06       224.515167      344.828E+06      -12.0967188
             3952     114.9448E+06   -57.469912E+06    -57.46982E+06       93.4290848   344.827808E+06       149.835846
             3953   114.942824E+06   -57.471112E+06   -57.471212E+06      -47.4932938   344.827776E+06       45.1415520
             3954   114.943168E+06   -57.470772E+06   -57.470904E+06      -168.318283   344.827968E+06      -64.6728363
             3955   114.943232E+06   -57.470964E+06   -57.470912E+06       86.8794174   344.828096E+06       172.682129
             3956   114.971352E+06   -57.446572E+06   -57.446476E+06  -8.35343164E+03    344.82544E+06       1.33298028
             3957    114.93896E+06    -57.47684E+06   -57.476828E+06   1.37648779E+03   344.832544E+06      -508.923279
             3958   114.940904E+06   -57.473912E+06     -57.4744E+06       112.467110   344.828128E+06      -278.400024
             3959    114.93304E+06   -57.482572E+06   -57.479212E+06   2.73115942E+03    344.82704E+06      -449.506287
             3960   114.884232E+06    -57.51572E+06    -57.51618E+06       51.8980064   344.826752E+06       658.905151
             3961   114.969904E+06    -57.45282E+06   -57.454236E+06   1.35953613E+03   344.830592E+06       474.501068
             3962   114.948448E+06   -57.465324E+06     -57.4663E+06       62.5501938   344.826624E+06       115.073273
             3963   114.940176E+06   -57.473076E+06   -57.473804E+06      -537.762573    344.82752E+06       191.145691
             3964   114.939888E+06   -57.475768E+06   -57.475436E+06       216.169846   344.828288E+06      -537.948120
             3965    114.94672E+06   -57.470888E+06   -57.472704E+06  -8.44619043E+03    344.82912E+06       94.9760056
             3966   114.867416E+06   -57.528036E+06   -57.528496E+06  -6.65754102E+03   344.825312E+06       210.163315
             3967   114.880664E+06   -57.525132E+06   -57.522948E+06  -7.39983350E+03    344.83312E+06      -630.687744
             3968   114.980288E+06   -57.442532E+06   -57.443488E+06       445.661438    344.82592E+06      -960.737610
             3969   114.932432E+06   -57.476596E+06    -57.47906E+06       392.245850   344.827552E+06      -21.4723816
             3970   114.928384E+06   -57.480768E+06   -57.479864E+06       464.670074    344.82608E+06       113.927788
             3971   114.943712E+06   -57.471704E+06      -57.473E+06      -439.109802   344.828192E+06      -306.404938
             3972   114.957216E+06   -57.460972E+06   -57.460644E+06  -1.21891736E+03   344.827072E+06      -331.042053
             3973   114.976432E+06   -57.447888E+06    -57.44792E+06   1.93755518E+03   344.830336E+06      -408.768433
             3974   114.963496E+06   -57.453076E+06   -57.453656E+06   3.21518359E+03   344.825792E+06      -139.665512
             3975   114.941712E+06   -57.471344E+06    -57.47148E+06      -132.701767   344.827456E+06       135.014908
             3976      114.968E+06    -57.45436E+06   -57.454764E+06      -542.200623      344.828E+06      -264.130981
             3977   114.937744E+06   -57.477668E+06   -57.477772E+06      -5.19769382    344.82992E+06      -505.005280
             3978   114.940416E+06   -57.472444E+06   -57.472564E+06       667.427368   344.827328E+06       626.795288
             3979   114.948768E+06    -57.46822E+06    -57.46928E+06  -1.91023792E+03    344.82688E+06      -950.976624
             3980   114.943984E+06   -57.469244E+06   -57.469376E+06       97.1305542      344.828E+06      -104.086090
             3981   114.953056E+06   -57.459564E+06   -57.459984E+06  -4.06857178E+03   344.823776E+06       241.652939
             3982   114.939912E+06   -57.469028E+06   -57.471688E+06       15.1073170   344.822016E+06   1.46904456E+03
             3983   114.958832E+06   -57.462952E+06   -57.464728E+06   8.01690527E+03   344.830944E+06       162.198395
             3984    114.94368E+06   -57.468772E+06   -57.468484E+06      -531.514893    344.82704E+06       168.144455
             3985   114.855648E+06   -57.551004E+06   -57.552436E+06  -1.08256641E+03   344.840064E+06       581.823303
             3986   114.951192E+06   -57.461064E+06   -57.462384E+06      -755.060852   344.828832E+06      -735.992981
             3987   114.941296E+06   -57.472192E+06   -57.471816E+06       250.490082   344.827296E+06      -3.83836031
             3988   114.952304E+06   -57.464432E+06   -57.465368E+06   1.21153430E+03    344.82688E+06       291.088867
             3989    114.94296E+06   -57.470668E+06   -57.470876E+06      -94.8723373   344.827968E+06       126.473694
             3990    114.93012E+06   -57.481956E+06   -57.482856E+06   1.72985034E+03   344.826208E+06      -423.792267
             3991   114.863832E+06   -57.531424E+06   -57.532048E+06  -6.94186279E+03   344.830816E+06  -1.41241479E+03
             3992   114.940344E+06   -57.473392E+06    -57.47418E+06      -641.300842   344.827872E+06      -219.600433
             3993    114.94036E+06   -57.473868E+06   -57.473584E+06      -529.268433    344.82832E+06      -460.049011
             3994   114.943568E+06   -57.469772E+06   -57.470016E+06       348.524231    344.82784E+06      -763.019531
             3995   114.934688E+06   -57.475796E+06   -57.477664E+06   1.12738647E+03   344.829088E+06       321.329437
             3996   114.927592E+06   -57.481868E+06   -57.481816E+06  -2.33931055E+03   344.825792E+06      -231.681793
             3997   114.943296E+06   -57.470696E+06   -57.471064E+06       233.575134   344.827904E+06       28.8604565
             3998   114.944616E+06   -57.470696E+06   -57.470196E+06      -18.9018955   344.828096E+06      -31.1718712
             3999   114.949328E+06   -57.466956E+06   -57.468068E+06  -1.05164722E+03   344.828512E+06       303.190002
             4000   114.941336E+06   -57.472592E+06    -57.47188E+06       239.314758    344.82832E+06       186.684418
             4001    114.93952E+06   -57.473636E+06    -57.47396E+06      -126.471565    344.82848E+06       45.1315193
             4002   114.941224E+06   -57.472636E+06   -57.472308E+06       364.878754   344.828192E+06       204.801544
             4003   114.897968E+06   -57.510084E+06   -57.508584E+06   2.38016577E+03   344.832672E+06      -439.891479
             4004   114.942296E+06   -57.471668E+06   -57.471792E+06      -28.2216110   344.828384E+06       15.5548096
             4005    114.94336E+06   -57.470996E+06   -57.471676E+06       388.967957   344.827648E+06       221.978180
             4006   114.946888E+06    -57.47208E+06    -57.47156E+06   2.26830444E+03      344.832E+06      -300.975006
             4007       114.95E+06   -57.464648E+06   -57.464516E+06      -673.323303   344.827296E+06       438.592346
             4008    114.94532E+06   -57.469252E+06    -57.47004E+06       194.279160   344.827456E+06      -558.522766
             4009   114.939288E+06    -57.47506E+06   -57.473872E+06       111.383865     344.8288E+06      -374.137115
             4010   114.936312E+06   -57.476484E+06   -57.476328E+06      -688.974915   344.828576E+06       438.974884
             4011     114.9486E+06    -57.46546E+06   -57.465268E+06       314.818451   344.827296E+06       428.453339
             4012   114.934664E+06   -57.478092E+06   -57.477828E+06      -921.689819   344.829056E+06       384.455475
             4013    114.92524E+06    -57.48408E+06    -57.48414E+06      -543.554565   344.825824E+06  -1.67747180E+03
             4014   114.943424E+06    -57.47026E+06    -57.47046E+06       154.158325    344.82864E+06       205.208298
             4015   114.937912E+06   -57.475328E+06   -57.477268E+06       141.548584    344.82832E+06      -292.184296
             4016   114.943744E+06   -57.469876E+06   -57.471184E+06       72.7441254   344.827168E+06      -629.815491
             4017   114.944632E+06   -57.470032E+06   -57.470328E+06      -134.249878   344.828192E+06       173.761337
             4018   114.870664E+06   -57.521924E+06   -57.522056E+06  -6.00654248E+03   344.823072E+06      -612.437317
             4019   114.941768E+06   -57.472152E+06   -57.471948E+06      -207.296249   344.828192E+06      -115.717255
             4020   114.942552E+06   -57.471324E+06   -57.471196E+06      -65.8175125   344.827744E+06       64.1546173
             4021    114.94884E+06   -57.469232E+06   -57.468684E+06      -429.872345   344.831328E+06       297.215179
             4022   114.944176E+06   -57.469316E+06   -57.469708E+06      -203.492554   344.827904E+06      -210.508087
             4023   114.944272E+06     -57.4705E+06   -57.470416E+06      -816.020508   344.828096E+06      -243.473602
             4024    114.94352E+06    -57.47138E+06    -57.47022E+06       113.597298   344.825728E+06      -532.014771
             4025   114.944664E+06    -57.47016E+06   -57.469656E+06      -51.2191544   344.827872E+06       97.0824127
             4026    114.94596E+06   -57.469484E+06   -57.468396E+06       587.699646   344.830816E+06   1.22704675E+03
             4027     114.9674E+06    -57.44424E+06   -57.442624E+06   1.47538525E+03   344.821568E+06   1.16171851E+03
             4028    114.92912E+06   -57.478988E+06   -57.478204E+06  -2.90582104E+03   344.824288E+06       511.614716
             4029   114.943128E+06    -57.47068E+06   -57.470352E+06      -21.1188965   344.827648E+06      -90.8214722
             4030      114.951E+06     -57.4633E+06   -57.462664E+06   1.41582813E+03   344.825152E+06       234.786346
             4031   114.978744E+06    -57.43766E+06   -57.436832E+06  -1.78611414E+03   344.821568E+06       525.274963
             4032   114.943392E+06   -57.470404E+06    -57.47022E+06      -65.4807739   344.827968E+06      -42.3936462
             4033   114.897016E+06   -57.506752E+06   -57.506256E+06  -4.93692285E+03   344.829696E+06  -1.01991907E+03
             4034   114.942064E+06   -57.472908E+06    -57.47286E+06      -446.509399   344.828096E+06       60.4494667
             4035   114.939816E+06   -57.471536E+06    -57.47002E+06      -14.9096537   344.827232E+06   1.04807251E+03
             4036    114.89888E+06    -57.51122E+06    -57.51016E+06  -2.44126196E+03   344.834656E+06       377.944275
             4037   114.938144E+06    -57.47602E+06    -57.47542E+06       271.399750    344.82864E+06       399.171021
             4038    114.93768E+06   -57.478364E+06   -57.478588E+06      -473.303986   344.828704E+06       631.735474
             4039   114.864416E+06   -57.535412E+06   -57.533684E+06  -4.95183838E+03   344.833696E+06   1.16948962E+03
             4040   114.975728E+06   -57.441392E+06   -57.440204E+06       345.197632    344.82544E+06   1.23562195E+03
             4041   114.938712E+06   -57.474584E+06   -57.474544E+06      -39.9477386   344.827424E+06      -160.231918
             4042    114.94548E+06   -57.468972E+06   -57.468896E+06      -544.435791    344.82784E+06      -364.537628
             4043   114.949208E+06    -57.46636E+06   -57.466144E+06       318.467163   344.827232E+06       483.951111
             4044   114.943976E+06   -57.470996E+06   -57.470364E+06      -606.046997      344.828E+06       10.6941776
             4045   114.948672E+06   -57.467768E+06   -57.466344E+06   1.75850122E+03   344.830528E+06       648.895447
             4046   114.948928E+06   -57.467368E+06   -57.467784E+06      -974.065430    344.82944E+06       322.880524
             4047   114.957728E+06   -57.464784E+06   -57.464772E+06  -5.10802979E+03   344.833472E+06      -239.315598
             4048   114.983064E+06     -57.4356E+06   -57.434588E+06  -2.21854175E+03   344.823392E+06       474.694122
             4049   114.938064E+06   -57.475476E+06   -57.474872E+06      -151.550201   344.828704E+06       55.0609016
             4050    114.94168E+06   -57.471892E+06    -57.47192E+06       3.43066978   344.828128E+06       77.5852509
             4051     114.9442E+06   -57.470356E+06   -57.469016E+06       41.5088768   344.827424E+06       535.875916
             4052      114.943E+06   -57.471268E+06   -57.471276E+06       89.0807724    344.82784E+06      -301.357147
             4053    114.94304E+06    -57.47144E+06   -57.471592E+06       128.531616   344.828416E+06      -155.964249
             4054   114.950056E+06   -57.463716E+06   -57.464372E+06      -726.110291   344.826656E+06      -417.513550
             4055   114.942104E+06   -57.469468E+06   -57.472224E+06   4.12692529E+03    344.82912E+06  -1.12938159E+03
             4056   114.939424E+06    -57.47524E+06   -57.474708E+06  -1.10585571E+03   344.828864E+06      -137.108597
             4057   114.935728E+06   -57.480756E+06   -57.478948E+06       824.456909   344.828224E+06       476.783752
             4058   114.942584E+06   -57.471156E+06   -57.470872E+06       90.5179977   344.827712E+06       16.9120674
             4059   114.942712E+06   -57.470972E+06   -57.470996E+06       15.6999846   344.827776E+06       26.2933235
             4060    114.95188E+06   -57.463856E+06   -57.464012E+06       209.557938    344.82768E+06       148.786224
             4061   114.941832E+06     -57.4729E+06   -57.470724E+06       121.883560    344.82944E+06  -1.22123987E+03
             4062   114.942688E+06   -57.471792E+06    -57.46814E+06       838.380249   344.829152E+06  -1.14128308E+03
             4063   114.941824E+06   -57.471864E+06   -57.471756E+06       154.934296   344.827584E+06       80.6852722
             4064    114.94348E+06    -57.47018E+06    -57.46926E+06       124.432106   344.827904E+06       174.238434
             4065   114.878608E+06   -57.526776E+06   -57.525544E+06  -3.43312573E+03   344.835808E+06      -440.114166
             4066   114.942272E+06   -57.471472E+06   -57.471292E+06      -309.391998    344.82752E+06      -598.121826
             4067   114.947072E+06   -57.469228E+06    -57.46894E+06      -780.851807   344.829184E+06       338.781799
             4068   114.985336E+06   -57.432436E+06   -57.433248E+06   1.73228088E+03   344.817824E+06   1.38894519E+03
             4069    114.94248E+06   -57.471116E+06   -57.471296E+06      -19.6422386    344.82784E+06       25.8627262
             4070   114.937456E+06   -57.477888E+06   -57.478964E+06      -468.572357   344.829792E+06      -258.024414
             4071   114.942632E+06   -57.471552E+06   -57.471436E+06       100.513695   344.828128E+06      -181.026169
             4072   114.944816E+06    -57.46958E+06     -57.4689E+06      -191.078308   344.827936E+06      -187.332077
             4073   114.944472E+06   -57.469108E+06   -57.469304E+06       401.514923   344.827488E+06      -28.6879215
             4074   114.868168E+06   -57.527528E+06   -57.528988E+06   4.42663721E+03    344.82368E+06       888.317566
             4075    114.96692E+06    -57.45044E+06   -57.451096E+06   3.24907397E+03   344.825664E+06      -332.715729
             4076   114.942824E+06    -57.47102E+06   -57.470472E+06      -23.0874786      344.828E+06       24.3844624
             4077   114.943736E+06   -57.471012E+06   -57.471916E+06      -393.361694   344.827136E+06       386.326324
             4078   114.944344E+06   -57.470148E+06   -57.470144E+06       303.985565   344.828128E+06      -114.527794
             4079   114.949512E+06   -57.469096E+06   -57.469244E+06      -274.840515   344.831392E+06       163.035583
             4080   114.970728E+06   -57.450224E+06   -57.452004E+06   3.09855298E+03   344.827136E+06       903.829651
             4081   114.959584E+06   -57.456764E+06   -57.457644E+06  -2.14356641E+03   344.825408E+06       172.680771
             4082   114.942264E+06    -57.47178E+06   -57.471652E+06       54.8048706    344.82816E+06       38.3100243
             4083   114.946904E+06   -57.468332E+06   -57.468468E+06      -332.477783    344.82816E+06      -52.5455055
             4084    114.94224E+06    -57.47134E+06    -57.47074E+06       128.247284    344.82768E+06      -26.1460552
             4085   114.950312E+06   -57.464928E+06    -57.46378E+06  -1.55869055E+03   344.826784E+06       378.593231
             4086   114.942656E+06    -57.47126E+06    -57.47084E+06       92.2442627   344.828064E+06      -123.968269
             4087   114.940816E+06   -57.472368E+06   -57.472528E+06       97.6518707    344.82816E+06      -193.109329
             4088   114.943848E+06    -57.47338E+06   -57.472656E+06  -1.49974280E+03    344.82944E+06       17.7515736
             4089   115.000096E+06   -57.428144E+06   -57.426928E+06  -1.66086279E+03    344.82528E+06   2.02791772E+03
             4090   114.947784E+06   -57.467816E+06    -57.46786E+06   1.03072717E+03   344.827296E+06       414.213562
             4091   114.944192E+06   -57.469736E+06   -57.469632E+06      -109.230392   344.827552E+06      -107.573929
             4092    114.94244E+06   -57.472632E+06   -57.472836E+06      -234.734650   344.828128E+06       253.139084
             4093   114.946544E+06   -57.467828E+06     -57.4671E+06  -1.00760406E+03   344.829152E+06      -692.408325
             4094    114.94028E+06   -57.473916E+06   -57.473612E+06      -170.843826   344.828512E+06       25.1773968
             4095   114.942136E+06   -57.473216E+06   -57.473396E+06      -788.359924   344.826816E+06      -898.206909
             4096   114.940968E+06    -57.47294E+06   -57.472944E+06       273.720154   344.828288E+06      -118.226845
             4097   114.962424E+06   -57.455992E+06   -57.457004E+06       450.972168   344.826688E+06       361.839294
             4098   114.946776E+06   -57.467744E+06   -57.467164E+06       813.843872   344.826048E+06       877.892700
             4099   114.941464E+06   -57.473716E+06    -57.47148E+06  -1.52206934E+03    344.82688E+06      -321.211578
             4100    114.94488E+06   -57.469364E+06   -57.469716E+06      -219.825012   344.827648E+06      -266.003357
             4101   114.916328E+06   -57.493808E+06   -57.494568E+06   3.30184326E+03    344.82832E+06       521.803772
             4102   114.932872E+06   -57.477408E+06    -57.47752E+06  -1.91856580E+03   344.831136E+06       946.291809
             4103   114.943608E+06    -57.47014E+06   -57.470116E+06       5.26961994   344.828032E+06       304.844086
             4104   114.940904E+06   -57.472844E+06   -57.473384E+06       143.889160   344.828128E+06      -484.105103
             4105   114.946192E+06    -57.46862E+06   -57.469124E+06      -488.289948    344.82768E+06       71.8164978
             4106    114.94448E+06   -57.467952E+06    -57.46832E+06       264.050598   344.826752E+06      -493.779236
             4107   114.942752E+06   -57.471028E+06   -57.470776E+06      -97.4532776   344.827616E+06      -84.6023254
             4108   114.909832E+06   -57.499396E+06   -57.500124E+06   6.09095361E+03    344.82992E+06       427.555511
             4109    114.95436E+06   -57.460096E+06   -57.460108E+06   1.18054590E+03   344.824736E+06       268.524750
             4110   114.945472E+06    -57.46602E+06    -57.46792E+06   2.36489380E+03    344.82368E+06       687.739319
             4111   114.992888E+06   -57.435152E+06   -57.433276E+06   5.74289551E+03   344.828864E+06       106.421516
             4112   114.933352E+06   -57.479024E+06   -57.479044E+06   1.43535962E+03   344.827232E+06       378.375183
             4113   114.988024E+06   -57.428328E+06   -57.428492E+06  -2.46442407E+03   344.820192E+06      -292.192261
             4114   114.924752E+06   -57.489276E+06   -57.490264E+06   7.01691553E+03   344.832768E+06      -174.387619
             4115   114.921328E+06   -57.485864E+06   -57.486892E+06  -3.16823193E+03   344.825856E+06      -110.932220
             4116   114.947696E+06   -57.468336E+06   -57.469276E+06      -944.733337   344.827648E+06      -681.159302
             4117   114.942728E+06   -57.470572E+06    -57.46984E+06       403.597809   344.828128E+06       117.123047
             4118   114.941952E+06    -57.47608E+06   -57.474092E+06      -579.145386   344.828544E+06      -435.186890
             4119   114.925944E+06   -57.486976E+06   -57.484612E+06       72.2266846    344.83104E+06      -70.2843857
             4120    114.91244E+06   -57.497924E+06   -57.498588E+06  -4.82535205E+03   344.832544E+06       600.413025
             4121    114.92884E+06    -57.48412E+06    -57.48342E+06  -1.83736548E+03   344.831072E+06   1.42407239E+03
             4122   114.969488E+06   -57.447916E+06   -57.446192E+06   1.94609045E+03   344.820512E+06  -1.19902112E+03
             4123    114.94416E+06   -57.469852E+06   -57.469556E+06       222.562775   344.827904E+06       51.4267197
             4124   114.873584E+06   -57.537744E+06    -57.53704E+06  -4.43974707E+03   344.838112E+06   2.07998975E+03
             4125   115.007624E+06   -57.422848E+06   -57.421948E+06       267.388306   344.826496E+06   2.12664917E+03
             4126   114.960616E+06   -57.455664E+06   -57.456208E+06   5.79901367E+03   344.825792E+06      -356.268463
             4127   114.948488E+06   -57.472708E+06    -57.46988E+06   2.14391895E+03   344.831456E+06  -1.08544165E+03
             4128   114.927696E+06   -57.485684E+06   -57.488292E+06   2.06833545E+03   344.827904E+06       289.917419
             4129      114.941E+06   -57.475256E+06   -57.476068E+06       698.302734      344.828E+06      -387.570801
             4130   114.935704E+06   -57.473592E+06   -57.474444E+06  -1.57363806E+03   344.827616E+06       619.638306
             4131   114.910544E+06   -57.495804E+06   -57.498808E+06       418.290558   344.831232E+06       835.363098
             4132    114.94472E+06   -57.469108E+06    -57.46908E+06      -54.3980370   344.827776E+06       16.6119556
             4133   114.929544E+06   -57.482712E+06   -57.482904E+06       104.967636      344.828E+06   1.10063269E+03
             4134    114.94568E+06   -57.467284E+06   -57.465192E+06      -271.414734   344.828096E+06       633.073425
             4135     114.9418E+06   -57.472364E+06   -57.473024E+06       355.621765   344.827712E+06       130.644455
             4136   114.946728E+06   -57.467768E+06   -57.466308E+06      -163.403854   344.828448E+06       297.424591
             4137   114.939768E+06    -57.47822E+06   -57.476188E+06   2.27451929E+03   344.831648E+06       808.304504
             4138    114.92384E+06   -57.487596E+06   -57.487064E+06  -1.99867114E+03   344.831264E+06       571.709351
             4139   114.944416E+06   -57.470052E+06   -57.469996E+06       327.544617   344.827744E+06       104.658516
             4140    114.94832E+06   -57.464796E+06   -57.464188E+06       38.6035614   344.828128E+06      -403.343109
             4141   114.946368E+06   -57.470676E+06    -57.47106E+06      -100.511635   344.831968E+06      -300.921875
             4142    114.94092E+06      -57.468E+06   -57.468408E+06       326.144379   344.825248E+06       712.906189
             4143   114.942384E+06   -57.471276E+06   -57.471396E+06       403.261566    344.82752E+06       231.573059
             4144   114.944448E+06   -57.468928E+06   -57.468964E+06       200.484390   344.827456E+06      -90.6004791
             4145   114.940008E+06   -57.473896E+06   -57.473748E+06       257.229584   344.827584E+06       280.792358
             4146   114.940008E+06    -57.47406E+06   -57.473824E+06       370.150452   344.827616E+06       316.144012
             4147   114.944728E+06    -57.46744E+06    -57.46708E+06   3.33272412E+03   344.824416E+06       639.451294
             4148   114.921968E+06   -57.487332E+06    -57.48524E+06      -822.739502   344.830432E+06       231.385391
             4149   114.943584E+06   -57.470908E+06   -57.470756E+06       26.2943478   344.827936E+06       109.876549
             4150   114.945784E+06    -57.46962E+06   -57.470036E+06      -224.719269   344.826784E+06      -482.332123
             4151    114.94244E+06   -57.471976E+06   -57.471848E+06       149.076431   344.828224E+06       63.9755363
             4152   114.950296E+06   -57.461508E+06    -57.46392E+06       730.927795   344.826496E+06      -609.232239
             4153   114.943328E+06   -57.469668E+06    -57.47112E+06       16.4869976    344.82704E+06       174.399460
             4154   114.955544E+06   -57.458204E+06   -57.458308E+06       885.188599   344.825216E+06       856.193237
             4155   114.944008E+06   -57.469688E+06   -57.467072E+06      -796.363831   344.827904E+06       672.445862
             4156   114.943352E+06   -57.471852E+06   -57.473124E+06      -288.376709   344.828288E+06       -627.71875
             4157   114.975536E+06   -57.439536E+06   -57.437816E+06  -2.55168652E+03   344.819936E+06      -43.3093376
             4158   114.948784E+06      -57.462E+06   -57.463044E+06      -809.145264   344.825504E+06       169.475250
             4159   114.944736E+06    -57.46906E+06   -57.469412E+06      -230.544052   344.827488E+06       155.906265
             4160   114.942552E+06    -57.47024E+06   -57.470076E+06      -640.472900   344.827648E+06       129.835114
             4161   114.940936E+06   -57.477896E+06   -57.477064E+06       207.825546   344.828896E+06      -220.361679
             4162   114.941768E+06   -57.472504E+06   -57.472352E+06      -435.648865   344.828192E+06       32.3327675
             4163   114.951992E+06   -57.459856E+06   -57.461628E+06       935.392395   344.824896E+06  -1.73901697E+03
             4164   114.945768E+06   -57.468464E+06   -57.468392E+06       205.078308   344.827296E+06       50.9737091
             4165   114.942032E+06   -57.472104E+06   -57.472228E+06      -321.063965   344.828224E+06      -93.2741776
             4166   114.938728E+06   -57.475144E+06   -57.479372E+06       145.512756   344.827232E+06       350.744934
             4167    114.91116E+06    -57.49512E+06   -57.495868E+06  -1.65510034E+03   344.825792E+06       550.696594
             4168   114.941968E+06   -57.472092E+06   -57.472032E+06      -301.637848      344.828E+06       127.032112
             4169    114.93836E+06   -57.475744E+06   -57.475508E+06       156.022308   344.827968E+06       347.414215
             4170   114.923288E+06   -57.484704E+06    -57.48072E+06  -2.28041699E+03   344.828544E+06   1.82333630E+03
             4171   114.940752E+06    -57.47104E+06   -57.468724E+06       539.112549   344.827872E+06   1.04530994E+03
             4172   114.957288E+06   -57.457624E+06   -57.457764E+06      -775.001404   344.827744E+06   1.28587634E+03
             4173   114.942184E+06   -57.471772E+06   -57.471596E+06      -229.023178   344.827776E+06      -415.886078
             4174   114.933592E+06   -57.481696E+06   -57.481652E+06       853.813293    344.83072E+06       312.787750
             4175   114.940192E+06    -57.47478E+06    -57.47584E+06       380.125488   344.828224E+06       721.229126
             4176   114.942912E+06   -57.471276E+06   -57.471496E+06      -138.463104      344.828E+06       91.0522461
             4177    114.94136E+06   -57.472688E+06   -57.472536E+06       257.419983      344.828E+06      -172.934677
             4178   114.943696E+06   -57.471152E+06   -57.470348E+06       177.297760   344.828896E+06       155.357269
             4179    114.94228E+06   -57.471552E+06   -57.471024E+06      -75.6707535   344.827904E+06      -41.3399620
             4180   114.943056E+06   -57.470716E+06   -57.470352E+06      -34.3614311   344.827808E+06       70.0673065
             4181    114.93556E+06   -57.478004E+06      -57.477E+06   1.34686365E+03    344.82832E+06       555.530640
             4182   115.036464E+06   -57.395184E+06    -57.39562E+06  -3.11933496E+03   344.823424E+06       679.465759
             4183   114.956288E+06   -57.462612E+06   -57.462776E+06   2.21097729E+03   344.827392E+06      -682.162170
             4184   114.934144E+06   -57.483976E+06   -57.487896E+06      -535.745300   344.829888E+06       795.065857
             4185   114.947864E+06    -57.46754E+06    -57.46826E+06  -1.07988562E+03   344.827264E+06      -365.774994
             4186   114.868784E+06   -57.534516E+06   -57.536432E+06      -766.019226   344.835136E+06      -80.7270508
             4187   114.940304E+06     -57.4737E+06   -57.473648E+06       269.261383   344.828352E+06      -16.4037590
             4188   114.946272E+06   -57.468496E+06   -57.468564E+06      -541.016602    344.82736E+06      -241.291626
             4189   114.946832E+06   -57.466532E+06   -57.466224E+06       823.057190   344.826432E+06       135.828857
             4190   114.918816E+06   -57.493756E+06   -57.493316E+06   1.99471729E+03   344.832544E+06       178.797562
             4191   114.942696E+06   -57.470976E+06   -57.471028E+06       171.516403    344.82768E+06       38.9100418
             4192   114.938384E+06   -57.475352E+06   -57.476416E+06  -2.24828882E+03    344.82672E+06  -1.48195081E+03
             4193   114.941776E+06   -57.472144E+06    -57.47218E+06      -450.583191    344.82816E+06       44.4894638
             4194   114.945032E+06   -57.469536E+06    -57.46946E+06       562.756409   344.828096E+06       49.2264900
             4195   114.937688E+06   -57.472012E+06   -57.474204E+06   1.24798389E+03   344.825792E+06       641.231140
             4196   114.947472E+06   -57.472692E+06   -57.471048E+06   1.28112744E+03   344.831712E+06       129.497772
             4197   114.944168E+06   -57.469196E+06    -57.46842E+06       562.803833   344.829088E+06       412.528809
             4198   114.944384E+06   -57.470544E+06   -57.471488E+06       864.022461    344.82832E+06      -134.661224
             4199   114.954128E+06   -57.461392E+06   -57.461872E+06       359.034027    344.82752E+06      -121.701881
             4200   114.943048E+06   -57.470784E+06   -57.470776E+06       366.999878   344.827712E+06      -1.91062176
             4201    114.92932E+06   -57.479292E+06   -57.481408E+06   1.18434180E+03    344.82688E+06       544.108948
             4202   114.944448E+06   -57.469252E+06   -57.470028E+06   1.30554004E+03   344.827008E+06       507.299286
             4203   114.945424E+06   -57.469024E+06   -57.469888E+06       213.283630   344.829088E+06       466.084869
             4204    114.92816E+06   -57.480716E+06   -57.483888E+06      -597.049438    344.82592E+06      -402.915009
             4205   114.942144E+06   -57.471552E+06    -57.47148E+06      -25.3807163   344.827808E+06      -13.9230728
             4206   114.943408E+06   -57.470704E+06   -57.470372E+06       76.6896973   344.828288E+06       23.0245686
             4207    114.94472E+06   -57.469352E+06    -57.46914E+06   1.05933301E+03    344.82976E+06       858.979492
             4208    114.94228E+06   -57.471468E+06   -57.471536E+06       63.3091621    344.82784E+06      -21.2828178
             4209    114.94372E+06       -57.47E+06   -57.469788E+06      -25.4073353   344.827936E+06       23.3062057
             4210   114.941784E+06   -57.472064E+06   -57.471956E+06      -10.5661869   344.828096E+06      -34.3945045
             4211    114.94084E+06   -57.473968E+06   -57.474288E+06       654.765076   344.828512E+06       602.369751
             4212   114.941496E+06   -57.472732E+06   -57.472956E+06      -66.1038208   344.828224E+06      -167.363968
             4213     114.9434E+06   -57.471012E+06   -57.472636E+06      -628.793823   344.828032E+06       184.096466
             4214   114.945736E+06   -57.468592E+06   -57.468464E+06      -372.317230   344.827872E+06       204.321152
             4215   114.939176E+06   -57.473572E+06   -57.473644E+06      -207.476563   344.827616E+06      -40.6248055
             4216    114.94196E+06    -57.47214E+06   -57.472224E+06       9.28381920    344.82864E+06       145.212173
             4217   114.932216E+06   -57.485428E+06     -57.4842E+06      -209.509018   344.833248E+06       95.8557205
             4218   114.945384E+06   -57.468272E+06   -57.470368E+06   1.15973389E+03   344.827104E+06  -1.14460156E+03
             4219   114.948112E+06    -57.46568E+06   -57.465272E+06       588.529114   344.826784E+06       270.769928
             4220   114.940648E+06    -57.47276E+06   -57.472844E+06       42.6896324   344.828288E+06      -38.4141045
             4221   114.945768E+06    -57.46886E+06   -57.468756E+06       261.634979   344.827936E+06      -23.7998104
             4222   114.942312E+06   -57.471504E+06   -57.471736E+06       168.236221   344.827648E+06      -136.947342
             4223   114.912208E+06   -57.494112E+06    -57.49482E+06   5.34003564E+03   344.828864E+06       731.454590
             4224   114.941088E+06   -57.472104E+06   -57.471992E+06       132.797714   344.827744E+06      -80.4277267
             4225    114.93952E+06    -57.47384E+06   -57.473792E+06      -293.636261   344.828448E+06       156.558578
             4226   114.942248E+06   -57.471632E+06   -57.471716E+06      -60.8869591    344.82768E+06      -109.757988
             4227    114.91724E+06   -57.491976E+06     -57.4914E+06      -435.695068   344.830848E+06       684.327271
             4228   114.944104E+06   -57.470572E+06   -57.470468E+06       12.3033218   344.828192E+06       50.5072632
             4229   114.937432E+06     -57.4748E+06   -57.474952E+06       454.059875    344.82752E+06       414.069580
             4230   114.947384E+06    -57.46834E+06   -57.466956E+06       631.635437   344.828544E+06       289.758789
             4231   114.944416E+06   -57.471576E+06   -57.471696E+06       713.840393   344.827712E+06      -555.469055
             4232   114.941048E+06   -57.472252E+06    -57.47224E+06       487.694336   344.828064E+06       194.075104
             4233   114.943264E+06   -57.470632E+06   -57.470416E+06      -369.290100   344.827744E+06      -26.5406322
             4234    114.92404E+06   -57.488836E+06    -57.48774E+06  -1.63746875E+03   344.833504E+06   1.14124585E+03
             4235   114.952288E+06   -57.464608E+06   -57.466408E+06      -83.4447403   344.828864E+06       774.209229
             4236   114.951408E+06    -57.46234E+06   -57.461968E+06       356.112640   344.825984E+06       303.660034
             4237   114.938952E+06    -57.47766E+06     -57.4757E+06       381.295959   344.829504E+06       144.776230
             4238   114.947504E+06   -57.467128E+06   -57.467188E+06       574.521057    344.82816E+06       147.030502
             4239   114.970304E+06   -57.448928E+06    -57.44752E+06      -84.2875900   344.826816E+06       323.831299
             4240    114.96812E+06    -57.44696E+06   -57.448916E+06  -4.29247754E+03   344.821664E+06      -74.5611496
             4241   114.987976E+06   -57.440232E+06   -57.438332E+06   1.35756482E+03   344.825152E+06       108.818954
             4242   114.940632E+06   -57.473236E+06   -57.467844E+06      -312.047577   344.828448E+06      -712.123718
             4243   114.974872E+06   -57.445288E+06   -57.441768E+06   1.16270947E+03   344.831136E+06       697.721008
             4244   114.944088E+06   -57.470028E+06   -57.469856E+06      -130.921524   344.828192E+06      -126.887825
             4245   114.922128E+06    -57.48914E+06   -57.490352E+06  -1.38512878E+03   344.826784E+06      -976.921509
             4246   114.941928E+06   -57.469736E+06   -57.470024E+06      -918.253357   344.827904E+06       157.489960
             4247       114.94E+06   -57.475572E+06    -57.47636E+06       520.631653   344.830048E+06       396.525482
             4248   114.897848E+06   -57.506276E+06   -57.503136E+06   3.64954150E+03   344.831808E+06       710.474487
             4249    114.94132E+06    -57.47186E+06   -57.471612E+06      -334.197113   344.827616E+06      -149.700104
             4250   114.944328E+06   -57.470192E+06   -57.468584E+06      -11.3629351   344.828992E+06       688.658875
             4251      114.947E+06    -57.47154E+06   -57.471308E+06       466.710815   344.829472E+06      -348.490845
             4252    114.95712E+06   -57.461284E+06    -57.46176E+06   1.53606763E+03   344.828928E+06       173.371948
             4253    114.96244E+06   -57.457092E+06   -57.458036E+06      -767.734741    344.82992E+06       18.9362564
             4254      114.943E+06    -57.47148E+06   -57.471308E+06       33.2800751   344.828544E+06       251.740479
             4255   114.943816E+06   -57.470552E+06   -57.470864E+06       156.182983   344.827904E+06       335.633514
             4256    114.94272E+06   -57.471752E+06   -57.471732E+06       164.243073   344.828544E+06      -103.605431
             4257      114.943E+06     -57.4709E+06   -57.470972E+06       74.2124023    344.82784E+06      -192.025467
             4258   114.911632E+06   -57.499536E+06    -57.49738E+06   4.70048389E+03   344.832032E+06      -403.339172
             4259   114.940616E+06   -57.470644E+06   -57.470248E+06   5.22124854E+03    344.82784E+06       821.789612
             4260   114.951208E+06   -57.460596E+06   -57.460552E+06       713.765076   344.823744E+06       142.931427
             4261   114.942056E+06    -57.47184E+06   -57.471884E+06      -182.732529   344.828128E+06       45.9879875
             4262   114.942136E+06   -57.472176E+06   -57.472056E+06      -5.01942635   344.828192E+06      -29.9393902
             4263   114.943176E+06   -57.475772E+06   -57.475128E+06      -909.573303   344.834432E+06       343.505280
             4264   114.984344E+06   -57.433216E+06     -57.4351E+06  -3.44676074E+03   344.821696E+06       484.788971
             4265   114.940864E+06   -57.473784E+06   -57.473844E+06      -34.5273018   344.828768E+06      -44.8289490
             4266   114.943088E+06     -57.4711E+06   -57.470888E+06       263.460968   344.827744E+06      -196.105164
             4267   114.943952E+06   -57.470024E+06   -57.470008E+06       180.807739   344.828224E+06      -63.1169510
             4268      114.923E+06   -57.487868E+06   -57.486404E+06   2.38668970E+03    344.82944E+06       137.258835
             4269   114.943896E+06   -57.470384E+06   -57.470132E+06      -150.092667   344.827904E+06      -14.3779230
             4270   114.938528E+06    -57.47488E+06   -57.474172E+06       238.243546   344.828608E+06       117.249329
             4271   114.944136E+06   -57.469824E+06   -57.470104E+06      -150.936447   344.828192E+06       10.9412327
             4272   114.980008E+06   -57.445556E+06   -57.444952E+06  -2.47597803E+03   344.832896E+06       364.646606
             4273   114.942408E+06    -57.47164E+06   -57.471308E+06       11.2482691    344.82816E+06      -216.486832
             4274   114.942024E+06   -57.471768E+06   -57.471704E+06      -75.5861435   344.827968E+06      -121.289124
             4275    114.96884E+06   -57.450884E+06     -57.4515E+06       106.033463    344.82672E+06      -462.753571
             4276   114.943688E+06   -57.470764E+06    -57.47062E+06      -228.215775   344.828128E+06      -105.984871
             4277    114.94844E+06   -57.465696E+06   -57.464908E+06       71.1435852   344.826144E+06      -172.859207
             4278     114.9192E+06   -57.489128E+06   -57.489328E+06   4.09323242E+03   344.829056E+06       786.026611
             4279     114.9442E+06     -57.4701E+06   -57.470184E+06       139.914764   344.827872E+06       51.5042763
             4280   114.943176E+06   -57.470504E+06   -57.470432E+06      -95.1188889    344.82784E+06      -49.6116257
             4281   114.942312E+06   -57.471436E+06   -57.471248E+06       52.5013161   344.827872E+06      -10.9401989
             4282   114.965224E+06   -57.448468E+06      -57.449E+06  -5.52576025E+03   344.822976E+06       748.312561
             4283   114.929072E+06   -57.477124E+06   -57.479128E+06   5.50314453E+03   344.822656E+06       385.352417
             4284   114.942072E+06   -57.471912E+06   -57.472584E+06  -2.72246069E+03   344.829568E+06   1.42786426E+03
             4285   114.922872E+06   -57.488916E+06   -57.490136E+06       173.000793   344.830784E+06       896.391479
             4286   114.942168E+06    -57.47178E+06   -57.471688E+06      -184.496536   344.828128E+06       162.772278
             4287   114.947328E+06     -57.4696E+06   -57.468316E+06      -493.502197    344.83248E+06       583.526794
             4288   114.924568E+06    -57.48862E+06   -57.488452E+06  -1.50345300E+03   344.831776E+06      -111.692825
             4289   114.953336E+06    -57.45746E+06   -57.457044E+06  -2.04831787E+03   344.823552E+06       631.186707
             4290    114.94632E+06   -57.467952E+06   -57.467504E+06      -674.663574     344.8288E+06      -496.670166
             4291   114.933312E+06   -57.482232E+06   -57.481892E+06   4.88169092E+03   344.828704E+06  -1.10163269E+03
             4292   114.956808E+06   -57.463052E+06   -57.463116E+06       134.366638   344.831104E+06       498.923523
             4293   114.943552E+06   -57.470704E+06   -57.470716E+06       119.455132   344.828224E+06       127.291451
             4294   114.943688E+06     -57.4707E+06   -57.470168E+06       338.863983   344.828736E+06       158.986160
             4295   114.955616E+06    -57.46096E+06   -57.461952E+06   2.39382202E+03   344.828384E+06   1.09924829E+03
             4296   114.945872E+06   -57.468844E+06    -57.46886E+06      -325.710846   344.828096E+06       45.1935959
             4297    114.92008E+06   -57.491632E+06   -57.488948E+06       762.626099   344.831872E+06      -362.637024
             4298   114.956432E+06   -57.457188E+06   -57.455956E+06   1.21075464E+03    344.82336E+06      -616.217896
             4299   114.952816E+06    -57.46574E+06    -57.46326E+06   1.47497083E+03    344.83152E+06      -344.413483
             4300    114.94316E+06   -57.470624E+06   -57.470424E+06      -64.9420929   344.827936E+06      -20.0951118
             4301    114.94276E+06   -57.472404E+06   -57.471616E+06      -439.422119   344.829088E+06      -291.721497
             4302   114.925176E+06   -57.480616E+06    -57.48074E+06   4.38780664E+03     344.8264E+06   1.10581433E+03
             4303   114.934712E+06   -57.480272E+06     -57.4798E+06      -937.407227   344.831264E+06       276.494690
             4304    114.94512E+06    -57.46968E+06    -57.46908E+06      -442.330078   344.828608E+06       546.680237
             4305   114.941288E+06   -57.472388E+06   -57.472428E+06      -275.002228   344.827808E+06      -24.3662605
             4306   114.942648E+06   -57.470736E+06   -57.470648E+06       221.950760   344.827648E+06      -76.6168976
             4307    114.94224E+06   -57.470884E+06   -57.470464E+06       163.083313    344.82768E+06      -66.0488129
             4308   114.943152E+06   -57.470924E+06   -57.470804E+06      -148.829529   344.827776E+06      -139.572510
             4309     114.9442E+06   -57.470104E+06   -57.470116E+06      -42.5436783   344.828032E+06       45.4903069
             4310   114.903952E+06   -57.496768E+06   -57.497144E+06   4.97387354E+03   344.828544E+06   1.90818115E+03
             4311   114.943424E+06   -57.470096E+06   -57.470272E+06       63.3347931    344.82752E+06      -24.9062061
             4312   114.946416E+06   -57.467188E+06   -57.466924E+06       450.662506   344.828096E+06       892.798584
             4313   114.945264E+06   -57.468108E+06   -57.467896E+06       464.049713   344.828064E+06       893.906799
             4314   114.941088E+06    -57.47278E+06   -57.471964E+06      -400.346497    344.82848E+06       36.0050735
             4315   114.941696E+06   -57.473016E+06   -57.472992E+06      -19.9679298    344.82816E+06       496.605988
             4316   114.950152E+06   -57.456644E+06   -57.457564E+06       798.040100      344.824E+06   1.81493726E+03
             4317    114.94412E+06    -57.46974E+06    -57.47026E+06       30.3492813    344.82736E+06      -41.6688309
             4318   114.942168E+06   -57.471904E+06   -57.472152E+06      -72.7671661   344.827904E+06      -224.969940
             4319   114.942952E+06    -57.47208E+06   -57.470928E+06      -153.104477      344.828E+06       19.7050686
             4320   114.949296E+06   -57.467568E+06   -57.471484E+06      -184.768997   344.827744E+06      -646.757751
             4321   114.925696E+06   -57.484484E+06   -57.483988E+06      -123.624100   344.828256E+06       884.783936
             4322   114.946552E+06    -57.46394E+06   -57.466152E+06      -198.454636   344.828256E+06      -963.581482
             4323   114.946504E+06    -57.46736E+06   -57.465896E+06      -104.318489   344.828192E+06  -1.25365283E+03
             4324   114.944472E+06   -57.470596E+06   -57.468828E+06      -312.099609    344.82768E+06      -216.148148
             4325   114.942536E+06    -57.47146E+06     -57.4714E+06      -78.3999329   344.828032E+06      -9.22354221
             4326   114.943304E+06   -57.471112E+06   -57.471072E+06       107.926651   344.828384E+06      -180.104004
             4327   114.943288E+06   -57.469976E+06   -57.470648E+06       415.796326   344.826976E+06      -415.561432
             4328   114.942072E+06    -57.47204E+06   -57.471916E+06      -103.462700   344.827904E+06      -259.054657
             4329   114.942296E+06   -57.473392E+06    -57.47496E+06   3.26169482E+03    344.83056E+06      -495.145325
             4330   114.960344E+06   -57.459072E+06   -57.459204E+06  -1.17287097E+03   344.829568E+06       79.6701965
             4331   114.940376E+06   -57.473508E+06   -57.472636E+06       294.119812   344.827392E+06       350.621521
             4332   114.934272E+06   -57.480964E+06   -57.479188E+06       881.481689   344.830208E+06      -287.900116
             4333   114.936416E+06   -57.476836E+06   -57.477572E+06      -381.716187   344.827584E+06      -583.863586
             4334   114.942824E+06      -57.472E+06   -57.472024E+06       920.606812   344.828544E+06      -220.838898
             4335   114.944576E+06   -57.470684E+06   -57.471004E+06       326.715240   344.829344E+06      -303.609924
             4336   114.995264E+06   -57.425264E+06   -57.423992E+06       628.596924   344.819008E+06       633.327759
             4337   114.944296E+06   -57.469488E+06   -57.469216E+06      -96.3463135   344.827296E+06      -42.1779022
             4338   114.934408E+06   -57.478684E+06   -57.477068E+06  -2.93245044E+03   344.831872E+06       828.556396
             4339   114.939744E+06   -57.476964E+06   -57.480084E+06      -915.396179    344.82752E+06      -920.605652
             4340    114.96156E+06   -57.457968E+06   -57.458852E+06  -1.15371069E+03   344.827968E+06  -1.09347461E+03
             4341   114.940392E+06   -57.473312E+06    -57.47324E+06      -400.140015   344.828512E+06      -618.165344
             4342   114.943688E+06   -57.470444E+06   -57.470544E+06      -216.863083   344.828192E+06       175.825089
             4343   114.946768E+06   -57.467084E+06    -57.46956E+06      -893.662415   344.827712E+06       83.3296051
             4344   114.936208E+06   -57.474704E+06   -57.474616E+06   2.90592871E+03   344.826912E+06   1.19354089E+03
             4345    114.94356E+06   -57.470712E+06   -57.470848E+06       108.443535   344.827968E+06       130.838913
             4346    114.94004E+06   -57.473976E+06   -57.474064E+06       172.261902   344.828544E+06       28.2239609
             4347   114.944888E+06   -57.472996E+06   -57.472708E+06       65.8250732   344.831872E+06       97.1486359
             4348   114.941088E+06    -57.47306E+06   -57.473208E+06      -519.915527   344.828448E+06       80.8476715
             4349   114.946272E+06   -57.468352E+06    -57.46402E+06      -340.200592    344.82672E+06  -1.09264612E+03
             4350   114.965032E+06   -57.449076E+06   -57.447696E+06  -5.34005566E+03   344.827712E+06      -931.706360
             4351   114.938792E+06   -57.475748E+06   -57.476376E+06   1.45444934E+03   344.826688E+06      -237.456055
             4352   114.942248E+06   -57.471648E+06   -57.471612E+06      -291.793793   344.827712E+06       65.9184723
             4353   114.937896E+06   -57.481468E+06   -57.479028E+06       891.644043   344.828128E+06       866.585205
             4354   114.943024E+06      -57.471E+06   -57.470736E+06      -3.39891148   344.828032E+06      -15.6190138
             4355   114.901632E+06   -57.506884E+06     -57.5076E+06  -2.70033081E+03     344.8304E+06   1.00078217E+03
             4356   114.974976E+06   -57.445168E+06   -57.443956E+06  -2.41457495E+03   344.825088E+06       439.019409
             4357    114.92448E+06    -57.48102E+06   -57.481944E+06      -663.868713   344.826016E+06       35.8200455
             4358   114.897144E+06   -57.512632E+06   -57.513332E+06        308.15625    344.83712E+06      -684.846741
             4359   114.944528E+06    -57.46754E+06   -57.470552E+06       802.760132     344.8272E+06      -258.945740
             4360   114.941136E+06   -57.472652E+06   -57.472728E+06       242.336670   344.828384E+06       62.2480736
             4361    114.94108E+06     -57.4722E+06   -57.474996E+06       962.263184   344.827328E+06       935.300720
             4362   114.941224E+06   -57.472544E+06   -57.472908E+06       283.588440   344.827712E+06       109.969696
             4363   114.959024E+06   -57.455092E+06   -57.454644E+06   1.99091174E+03   344.826144E+06       110.505135
             4364   114.933528E+06   -57.478628E+06   -57.480544E+06  -3.60093774E+03   344.826624E+06      -850.432251
             4365   114.945768E+06     -57.4722E+06    -57.47246E+06      -505.603607    344.82832E+06      -101.064140
             4366    114.94036E+06    -57.47028E+06   -57.468652E+06       507.348633   344.827136E+06       875.197876
             4367   114.925744E+06    -57.48582E+06   -57.485488E+06   -5.5895625E+03    344.83152E+06       139.087204
             4368   114.942752E+06   -57.471012E+06   -57.471156E+06      -101.800934   344.827488E+06      -140.556259
             4369   114.941704E+06   -57.473056E+06   -57.474544E+06      -485.462189   344.828576E+06      -52.2348442
             4370   114.942328E+06   -57.471636E+06   -57.471848E+06      -14.9813766   344.828064E+06       95.8171692
             4371    114.96004E+06   -57.454764E+06   -57.455296E+06   2.47848926E+03   344.828352E+06      -76.1818848
             4372   114.942152E+06   -57.471024E+06   -57.471236E+06       95.9925385    344.82736E+06       264.763123
             4373   114.949648E+06   -57.465316E+06    -57.46238E+06      -392.948181   344.826432E+06      -367.174347
             4374   114.959704E+06     -57.4565E+06   -57.458072E+06  -3.07622949E+03   344.827136E+06  -1.23635181E+03
             4375       114.95E+06   -57.465248E+06     -57.4685E+06   1.47661243E+03   344.826816E+06      -781.736023
             4376   114.928528E+06    -57.48756E+06   -57.485544E+06   5.59389502E+03   344.828096E+06   1.41327576E+03
             4377   114.943104E+06   -57.471064E+06   -57.471096E+06       151.644272   344.827904E+06      -32.1688232
             4378   114.942832E+06   -57.471344E+06   -57.470908E+06      -142.320923    344.82864E+06       122.881378
             4379   114.943208E+06    -57.47104E+06   -57.470976E+06      -297.056641    344.82784E+06       98.5190735
             4380   114.948168E+06     -57.4585E+06   -57.459308E+06  -2.85313916E+03    344.82288E+06      -309.416382
             4381   114.943608E+06   -57.470428E+06    -57.47028E+06      -42.6223145   344.827808E+06      -63.2839394
             4382   114.940024E+06   -57.473356E+06   -57.474192E+06       461.067078    344.82784E+06       483.903076
             4383   114.949752E+06    -57.46948E+06   -57.466872E+06   2.80491968E+03    344.83024E+06       533.958435
             4384   114.943048E+06   -57.471196E+06   -57.472704E+06      -516.633606   344.827776E+06      -862.554199
             4385   114.944664E+06   -57.469804E+06   -57.469608E+06      -121.201271   344.828064E+06       35.7745705
             4386   114.865312E+06   -57.538288E+06   -57.538276E+06  -1.87934412E+03    344.83584E+06      -405.428162
             4387   114.947464E+06   -57.468208E+06     -57.4696E+06      -717.467651   344.827456E+06       388.457916
             4388   114.951024E+06   -57.464716E+06    -57.46556E+06      -74.9754868   344.830784E+06      -775.216553
             4389   114.960496E+06   -57.454116E+06   -57.453248E+06      -513.854736   344.825248E+06       865.993652
             4390   114.941416E+06   -57.472284E+06    -57.47192E+06      -199.354675   344.828096E+06      -32.6582108
             4391   114.942824E+06    -57.47128E+06    -57.47114E+06       159.472137   344.827936E+06      -164.276260
             4392   114.944032E+06   -57.470588E+06   -57.470372E+06      -66.2770920   344.827776E+06       96.4822083
             4393    114.94352E+06   -57.470476E+06    -57.47034E+06      -250.939270   344.827328E+06       19.9870338
             4394   114.950152E+06   -57.463972E+06     -57.4624E+06      -277.604095   344.827808E+06       105.245087
             4395   114.978488E+06    -57.43826E+06    -57.43802E+06   3.43767285E+03   344.820416E+06       408.520233
             4396   114.943864E+06    -57.47028E+06   -57.470072E+06      -53.6033897   344.827872E+06      -46.9731750
             4397    114.93572E+06   -57.478744E+06    -57.47766E+06   1.58912451E+03   344.828864E+06   1.04921912E+03
             4398   114.942304E+06   -57.470548E+06     -57.4725E+06   3.44797021E+03   344.826784E+06      -389.829681
             4399   114.953072E+06     -57.4641E+06     -57.4642E+06       720.208618   344.828096E+06       319.630432
             4400   114.942008E+06   -57.471556E+06     -57.4721E+06       181.374802   344.827648E+06      -174.679596
             4401    114.96976E+06   -57.442148E+06   -57.442408E+06       107.972816   344.820832E+06       403.703308
             4402     114.9426E+06   -57.470796E+06   -57.469876E+06      -173.008179   344.827776E+06      -274.931366
             4403   114.944312E+06   -57.470248E+06   -57.469832E+06       19.2044754   344.827808E+06       75.2340622
             4404   114.943336E+06   -57.470696E+06   -57.470564E+06      -84.4397659   344.827936E+06      -89.3462067
             4405   114.941912E+06   -57.472188E+06   -57.471932E+06      -47.6865959   344.827904E+06      -80.9114609
             4406   114.943048E+06   -57.471292E+06   -57.470948E+06       104.479889   344.827712E+06       35.4805222
             4407   114.943784E+06   -57.470788E+06   -57.470656E+06       222.916855   344.827936E+06       39.4164963
             4408   114.941976E+06   -57.472056E+06   -57.471896E+06       53.7075615   344.828032E+06      -204.065567
             4409   114.944536E+06   -57.470228E+06   -57.470084E+06       222.937469   344.827872E+06       16.7719193
             4410   114.943184E+06   -57.470608E+06   -57.470824E+06       30.0929699   344.827808E+06      -139.422394
             4411   114.942944E+06   -57.471452E+06   -57.471036E+06       38.8816757   344.827968E+06      -38.4617653
             4412   114.942032E+06   -57.472572E+06   -57.472332E+06      -408.704132    344.82816E+06      -73.8689575
             4413   114.942864E+06    -57.47108E+06   -57.471068E+06       89.8987808   344.827872E+06      -34.5873032
             4414   114.941904E+06   -57.472232E+06   -57.471648E+06      -117.682144   344.828672E+06      -285.338654
             4415   114.939232E+06   -57.474344E+06    -57.47434E+06       184.533630    344.82688E+06       355.447845
             4416   114.937672E+06   -57.475252E+06   -57.476268E+06  -1.01108252E+03   344.828224E+06      -45.8856316
             4417   114.919376E+06   -57.491224E+06   -57.491824E+06  -3.06937305E+03   344.829632E+06       94.0084686
             4418    114.96704E+06   -57.451676E+06   -57.452264E+06  -2.64318115E+03    344.82608E+06      -249.034271
             4419   114.949464E+06   -57.465488E+06    -57.46634E+06      -812.416016   344.826848E+06       374.437775
             4420     114.9348E+06   -57.479076E+06   -57.477312E+06  -1.44398755E+03    344.82768E+06      -195.560043
             4421   114.961264E+06   -57.455944E+06   -57.455372E+06      -36.9589119   344.824864E+06      -339.736572
             4422   114.945192E+06   -57.467584E+06   -57.468436E+06       393.354828    344.82736E+06       488.790527
             4423   114.924544E+06   -57.481488E+06   -57.483092E+06   10.3110420E+03   344.823264E+06   1.14998450E+03
             4424   114.944312E+06   -57.471828E+06   -57.471824E+06      -292.523834   344.827968E+06      -809.973694
             4425   114.940672E+06    -57.47388E+06    -57.47454E+06      -954.739136   344.828768E+06       451.298981
             4426    114.94604E+06   -57.469232E+06   -57.471072E+06       112.592979   344.828768E+06      -288.222778
             4427   114.943768E+06    -57.47072E+06   -57.470536E+06      -508.107544   344.828192E+06      -14.8441210
             4428   114.944192E+06    -57.47032E+06   -57.470168E+06       376.932220   344.828128E+06      -64.1648941
             4429   114.943112E+06   -57.468684E+06   -57.469132E+06      -506.778046   344.826464E+06      -414.489746
             4430   114.947312E+06   -57.462192E+06   -57.462916E+06   2.93792187E+03   344.828896E+06       135.338593
             4431   114.947128E+06   -57.468184E+06   -57.468956E+06      -183.143784   344.827136E+06      -273.585938
             4432   114.936496E+06   -57.478728E+06   -57.479328E+06  -1.36111401E+03   344.828032E+06  -1.33001758E+03
             4433   114.940848E+06   -57.472672E+06   -57.473408E+06       599.882080   344.827968E+06       193.942810
             4434    114.94024E+06   -57.474748E+06   -57.475512E+06  -1.23820056E+03   344.827168E+06  -1.95242053E+03
             4435   114.946856E+06   -57.466872E+06   -57.467472E+06   1.11202661E+03    344.82784E+06       134.206482
             4436   114.934552E+06   -57.478944E+06   -57.478904E+06  -2.50688013E+03    344.82896E+06      -486.787445
             4437   114.937584E+06   -57.478412E+06    -57.47788E+06   1.22455164E+03   344.830304E+06      -456.024719
             4438   114.947864E+06   -57.466608E+06   -57.468076E+06       80.8047180   344.825408E+06       388.931549
             4439   114.942512E+06    -57.47096E+06   -57.471044E+06       49.4059258   344.827328E+06      -16.5887394
             4440    114.93372E+06       -57.48E+06   -57.478732E+06      -255.151703   344.828544E+06      -382.841064
             4441   114.938856E+06    -57.47472E+06    -57.47462E+06      -170.501862    344.82832E+06       144.363235
             4442   114.943104E+06   -57.469416E+06   -57.470952E+06       492.756744     344.8272E+06       280.784790
             4443   114.935208E+06     -57.4753E+06   -57.475632E+06      -126.660881   344.829024E+06       192.868164
             4444   114.938856E+06   -57.475196E+06   -57.478808E+06       440.133484   344.831776E+06       870.929688
             4445   114.942328E+06   -57.470956E+06   -57.471468E+06      -130.639359   344.827232E+06      -94.4596329
             4446   114.941968E+06   -57.472044E+06   -57.472708E+06       61.9688683   344.827808E+06       53.6802444
             4447   114.943488E+06   -57.470892E+06     -57.4705E+06       452.968719   344.826944E+06       117.045265
             4448   114.943256E+06     -57.4708E+06   -57.470968E+06       131.538895   344.828128E+06      -5.05376720
             4449    114.94316E+06   -57.470996E+06   -57.470992E+06       184.009430   344.828032E+06       117.220947
             4450   114.942848E+06      -57.471E+06   -57.470984E+06      -4.34454203   344.827936E+06       149.823593
             4451   114.945008E+06   -57.469512E+06    -57.46992E+06       127.275948   344.828128E+06      -119.963539
             4452   114.939384E+06   -57.474708E+06    -57.47442E+06       532.247253   344.827968E+06       230.040390
             4453   114.941056E+06   -57.472904E+06   -57.472604E+06      -78.4353561   344.828128E+06      -40.5943222
             4454   114.942728E+06   -57.471472E+06   -57.471484E+06       40.5231552   344.827936E+06      -45.2274361
             4455   114.942952E+06   -57.470996E+06   -57.471048E+06      -56.0966797      344.828E+06      -120.759148
             4456   114.946064E+06   -57.468664E+06    -57.46866E+06       223.570129   344.828224E+06       141.312042
             4457   114.938608E+06   -57.472436E+06   -57.474708E+06   3.47741943E+03   344.830048E+06      -830.605103
             4458   114.937808E+06   -57.473088E+06   -57.473984E+06   1.04013818E+03   344.827552E+06       107.670609
             4459   114.944432E+06   -57.469556E+06   -57.469444E+06       178.153046   344.827808E+06      -91.2568741
             4460     114.9424E+06   -57.471484E+06   -57.471496E+06       102.839577      344.828E+06      -98.0018387
             4461    114.94312E+06   -57.470904E+06    -57.47098E+06       19.6792240   344.827904E+06      -20.1826839
             4462   114.947296E+06   -57.466752E+06   -57.466452E+06      -421.528259    344.82768E+06       170.905334
             4463   114.942792E+06   -57.470268E+06    -57.46938E+06      -482.952362   344.827168E+06  -1.55994470E+03
             4464   114.943432E+06   -57.471876E+06   -57.472472E+06      -546.636902   344.828288E+06      -827.928162
             4465   114.960544E+06   -57.448776E+06   -57.445432E+06  -1.08648767E+03     344.8232E+06      -114.925735
             4466     114.9454E+06    -57.46894E+06   -57.469268E+06      -258.042969     344.8272E+06      -302.624298
             4467    114.94668E+06   -57.467256E+06   -57.467488E+06       343.209808    344.82784E+06   1.43884741E+03
             4468    114.94276E+06   -57.471076E+06   -57.470792E+06       21.3906155   344.827872E+06       178.794235
             4469    114.94764E+06   -57.465248E+06   -57.466708E+06      -320.252533   344.827456E+06      -307.925323
             4470   114.962168E+06   -57.454836E+06   -57.454476E+06       451.332764    344.82496E+06      -243.067215
             4471   114.945688E+06   -57.466128E+06   -57.469048E+06      -57.4783592    344.82752E+06       103.012611
             4472   114.944752E+06   -57.469044E+06   -57.469764E+06       457.517578   344.827296E+06       401.374207
             4473   114.932656E+06   -57.476728E+06   -57.477084E+06  -2.27398315E+03   344.823968E+06      -141.088196
             4474     114.9418E+06   -57.471776E+06   -57.471668E+06      -617.304321    344.82784E+06       62.8489227
             4475    114.94852E+06   -57.468272E+06   -57.466392E+06   2.50443311E+03   344.827616E+06       179.433624
             4476    114.93536E+06   -57.478216E+06   -57.481184E+06       733.509216   344.827456E+06      -682.776978
             4477   114.940376E+06   -57.473676E+06   -57.472752E+06      -991.999634   344.827104E+06      -485.051880
             4478   114.943184E+06   -57.471184E+06   -57.471472E+06       145.048111      344.828E+06      -132.944763
             4479   114.922688E+06   -57.487128E+06   -57.488604E+06  -2.80330737E+03   344.829504E+06  -1.08812683E+03
             4480   114.940184E+06   -57.475616E+06    -57.47656E+06  -1.17791797E+03   344.829504E+06      -152.889481
             4481   114.949992E+06   -57.469824E+06    -57.46632E+06       880.540588   344.830016E+06  -1.84401025E+03
             4482     114.9166E+06   -57.494048E+06   -57.491836E+06       592.448120   344.832832E+06       12.9452267
             4483    114.95928E+06   -57.456192E+06   -57.455016E+06  -2.86448291E+03   344.823744E+06      -848.460144
             4484   114.969776E+06   -57.445272E+06    -57.44698E+06  -3.55632446E+03   344.820768E+06       914.248962
             4485    114.99196E+06   -57.428256E+06   -57.429368E+06  -2.13315503E+03   344.820576E+06       883.702271
             4486   114.947016E+06    -57.46282E+06   -57.461248E+06   1.30067236E+03   344.823904E+06      -628.036743
             4487   114.893152E+06   -57.509888E+06   -57.514068E+06   3.75329004E+03   344.834048E+06   1.27253394E+03
             4488   114.942064E+06   -57.471396E+06   -57.471724E+06      -384.998932   344.827904E+06       184.973145
             4489   114.940672E+06    -57.47186E+06   -57.472484E+06      -417.027527   344.828256E+06      -784.275391
             4490    114.95348E+06   -57.463376E+06   -57.464468E+06   2.14222559E+03   344.826976E+06      -774.842285
             4491   114.959256E+06   -57.460644E+06   -57.460512E+06   1.15518835E+03   344.828608E+06      -611.535339
             4492   114.940336E+06   -57.470964E+06   -57.469692E+06       197.620895   344.827744E+06       838.034485
             4493   114.939464E+06   -57.474392E+06   -57.474052E+06       34.0622826   344.828544E+06      -163.621933
             4494   114.944656E+06     -57.4698E+06     -57.4697E+06      -136.999252   344.827904E+06      -18.7193279
             4495   114.943144E+06   -57.470496E+06   -57.470692E+06       314.344177    344.82784E+06       142.777267
             4496   114.941536E+06   -57.471608E+06   -57.471956E+06       192.088379   344.827648E+06       149.481277
             4497   114.948832E+06   -57.463516E+06   -57.465816E+06       302.660248   344.826752E+06      -24.0078945
             4498    114.94208E+06     -57.4714E+06   -57.471508E+06       150.855225   344.827776E+06       19.8257484
             4499   114.943032E+06   -57.470972E+06   -57.470784E+06       153.300079   344.827936E+06       62.7422447
             4500    114.94408E+06    -57.46934E+06   -57.469484E+06       222.575821   344.827808E+06      -51.8667068
             4501   114.941512E+06    -57.47178E+06   -57.471728E+06      -115.390358   344.827584E+06       60.7538071
             4502   114.942352E+06   -57.471712E+06   -57.471492E+06       86.8542099      344.828E+06       69.9064484
             4503   114.940112E+06     -57.4736E+06   -57.473792E+06      -33.0665321   344.828576E+06      -98.1505051
             4504   114.943816E+06   -57.470096E+06   -57.469964E+06      -104.669388   344.827936E+06      -214.151276
             4505   114.943288E+06   -57.471504E+06   -57.471304E+06       47.2332306   344.828128E+06       282.002289
             4506   114.943152E+06   -57.469808E+06   -57.470568E+06       68.9061737   344.827872E+06      -342.209839
             4507   114.938912E+06   -57.472648E+06   -57.472508E+06  -2.69818286E+03    344.82608E+06       103.849693
             4508   114.943408E+06    -57.47076E+06   -57.470348E+06      -3.02240872   344.827904E+06      -37.8475685
             4509    114.94304E+06   -57.470888E+06   -57.471016E+06      -56.3465195   344.828032E+06      -183.711075
             4510   114.944904E+06   -57.469692E+06   -57.469804E+06      -287.033264    344.82784E+06       112.549660
             4511   114.945952E+06   -57.467248E+06    -57.46532E+06       374.375244    344.82784E+06   1.03599890E+03
             4512   114.941608E+06    -57.47264E+06   -57.472776E+06      -14.5438395    344.82816E+06      -396.347229
             4513   114.941824E+06   -57.471764E+06   -57.471988E+06      -167.504456   344.827712E+06       155.815262
             4514   114.943256E+06   -57.473956E+06   -57.473044E+06  -1.15155005E+03   344.829344E+06       610.411011
             4515   114.968032E+06   -57.451704E+06   -57.451632E+06   3.48562354E+03   344.823392E+06  -1.33752539E+03
             4516    114.94216E+06   -57.471808E+06   -57.471808E+06      -212.865753   344.827648E+06       192.544083
             4517   114.941992E+06   -57.471896E+06    -57.47148E+06      -114.623749      344.828E+06      -63.8208923
             4518    114.94868E+06   -57.466964E+06    -57.46736E+06  -1.19102808E+03   344.827264E+06      -297.990387
             4519   114.944176E+06   -57.469852E+06   -57.469896E+06      -159.375977   344.827808E+06       98.5492477
             4520     114.9436E+06   -57.470164E+06   -57.470208E+06      -141.997208   344.828064E+06      -78.3567429
             4521   114.944144E+06   -57.472968E+06     -57.4734E+06      -698.979126   344.829152E+06  -1.80236768E+03
             4522    114.94032E+06    -57.47308E+06   -57.472848E+06      -287.182617   344.828096E+06      -144.808578
             4523   114.943624E+06   -57.470716E+06    -57.47074E+06      -199.294998    344.82832E+06      -55.7037926
             4524   114.941672E+06   -57.472264E+06   -57.473296E+06       29.0375519    344.82784E+06      -288.398773
             4525    114.94396E+06    -57.47162E+06   -57.472448E+06      -142.194107   344.828448E+06       623.117676
             4526   114.943376E+06   -57.470808E+06   -57.470716E+06      -66.4831924   344.827904E+06      -220.935074
             4527   114.945112E+06     -57.4683E+06   -57.468096E+06      -456.327454   344.825216E+06      -474.211884
             4528   114.942552E+06   -57.471708E+06   -57.472172E+06      -335.526093   344.828064E+06       267.088684
             4529   114.942584E+06   -57.471396E+06    -57.47098E+06      -74.3060684    344.82816E+06      -169.530975
             4530    114.94228E+06   -57.471684E+06   -57.471644E+06       61.5709915    344.82816E+06      -38.6279984
             4531   114.935056E+06   -57.478572E+06   -57.477816E+06   1.45883582E+03   344.828544E+06       734.021423
             4532   114.943144E+06   -57.470736E+06    -57.47068E+06       289.854980      344.828E+06      -10.8038359
             4533      114.943E+06   -57.470744E+06   -57.470708E+06       32.9702148   344.827744E+06      -122.265228
             4534   114.943336E+06    -57.47038E+06    -57.47042E+06       151.910858    344.82768E+06      -79.3800430
             4535   114.942408E+06   -57.471868E+06   -57.471508E+06      -97.1769714   344.828032E+06      -56.5004311
             4536   114.942416E+06    -57.47144E+06   -57.471432E+06      -30.5419617   344.827744E+06       155.869720
             4537   114.942152E+06    -57.47166E+06   -57.471332E+06      -59.7539291    344.82768E+06       12.4693365
             4538   114.943608E+06    -57.46966E+06   -57.469884E+06      -285.092987   344.828032E+06      -129.119781
             4539    114.94632E+06   -57.466868E+06   -57.466512E+06      -162.788437   344.827552E+06       290.562714
             4540   114.942256E+06   -57.471516E+06   -57.471304E+06      -646.757507   344.827232E+06       63.2902718
             4541   114.945344E+06   -57.468688E+06   -57.468636E+06      -253.020203   344.827264E+06       171.969788
             4542   114.941992E+06   -57.471948E+06   -57.471508E+06      -17.4574490   344.828128E+06       56.0371780
             4543   114.943704E+06   -57.470456E+06   -57.470224E+06      -321.463043   344.828064E+06       96.3406525
             4544    114.94184E+06   -57.472624E+06    -57.47262E+06      -110.392189   344.828736E+06      -50.6202087
             4545    114.94216E+06   -57.473592E+06   -57.472672E+06  -1.32646997E+03   344.829056E+06      -884.349609
             4546   114.933096E+06   -57.481408E+06     -57.4847E+06       193.421967   344.828896E+06   1.36502625E+03
             4547     114.9492E+06   -57.469132E+06   -57.469104E+06  -3.17438745E+03     344.8288E+06  -1.08759131E+03
             4548    114.94732E+06   -57.470112E+06   -57.470192E+06       206.376572   344.827904E+06      -659.430908
             4549   114.954064E+06   -57.459972E+06   -57.461912E+06  -1.11303284E+03    344.82544E+06      -587.212219
             4550    114.93144E+06   -57.481904E+06   -57.484136E+06  -2.95494995E+03   344.829472E+06      -310.077209
             4551   114.951776E+06   -57.462772E+06   -57.462792E+06  -1.77992590E+03   344.826432E+06       164.392593
             4552     114.9438E+06   -57.469888E+06   -57.469252E+06       213.584610   344.827744E+06       82.0386353
             4553    114.92128E+06   -57.489052E+06   -57.489124E+06   4.12951807E+03   344.829344E+06      -76.2081299
             4554   114.942496E+06   -57.471176E+06   -57.471072E+06       61.0376968    344.82768E+06       18.4633255
             4555   114.943768E+06    -57.47026E+06   -57.470588E+06      -781.394653   344.827872E+06      -127.677689
             4556    114.93976E+06   -57.472548E+06   -57.473576E+06      -230.447388   344.826976E+06      -255.160904
             4557   114.941968E+06    -57.47004E+06   -57.468796E+06      -154.504349   344.826784E+06       47.5664482
             4558    114.94472E+06   -57.469524E+06   -57.469308E+06      -255.020721     344.8272E+06      -188.205215
             4559   114.969808E+06   -57.450372E+06   -57.451984E+06   6.04135205E+03   344.825056E+06  -1.50151477E+03
             4560    114.94148E+06   -57.474264E+06    -57.47494E+06      -697.004578     344.8296E+06      -170.256348
             4561   114.955328E+06   -57.464156E+06   -57.465832E+06   2.13214087E+03   344.826528E+06       184.770416
             4562    114.94164E+06   -57.472224E+06   -57.471808E+06       40.1813812      344.828E+06       45.6630173
             4563   114.971768E+06   -57.449764E+06   -57.452368E+06   4.02339624E+03   344.826592E+06       576.258545
             4564   114.941816E+06   -57.471824E+06    -57.47086E+06       302.343414   344.828736E+06       272.408447
             4565   114.923288E+06    -57.48972E+06   -57.488504E+06   2.75974951E+03    344.83072E+06      -467.184753
             4566   114.944576E+06     -57.4689E+06   -57.469964E+06   1.68075500E+03   344.828544E+06      -891.703491
             4567   114.936968E+06   -57.478672E+06    -57.47838E+06  -2.39330103E+03   344.828064E+06      -386.307281
             4568   114.945504E+06   -57.468672E+06   -57.469036E+06      -656.240356   344.827648E+06      -131.838272
             4569   114.941112E+06   -57.471904E+06   -57.469872E+06  -1.70362048E+03   344.827264E+06      -601.290283
             4570   114.953704E+06   -57.461456E+06   -57.461348E+06      -464.098907   344.828128E+06      -915.832214
             4571   114.943096E+06    -57.47008E+06   -57.471012E+06      -303.557404   344.827392E+06      -263.746277
             4572   114.942216E+06   -57.471544E+06   -57.471372E+06       100.165764   344.827712E+06       17.9052868
             4573   114.943944E+06   -57.470284E+06   -57.469964E+06      -393.604126   344.827936E+06       19.2105408
             4574    114.93124E+06   -57.481932E+06   -57.483112E+06   2.50185864E+03   344.830208E+06       384.577362
             4575    114.91736E+06   -57.493136E+06   -57.492068E+06   2.57086060E+03   344.830272E+06       48.4097214
             4576   114.945728E+06   -57.465888E+06   -57.466732E+06       77.3350525   344.824832E+06      -341.262695
             4577   114.944488E+06    -57.46972E+06   -57.470536E+06       410.984497   344.827936E+06      -616.573059
             4578   114.953288E+06   -57.462892E+06    -57.46252E+06   1.03491492E+03   344.828096E+06       31.4864330
             4579   114.942376E+06   -57.471612E+06   -57.471652E+06       101.240898   344.827936E+06       56.8174515
             4580    114.94392E+06   -57.472204E+06    -57.47062E+06       185.392181   344.827936E+06      -645.733826
             4581   114.943896E+06   -57.470732E+06   -57.470868E+06      -638.080261   344.828288E+06      -332.215454
             4582    114.94224E+06   -57.471224E+06    -57.47106E+06       127.086182   344.827488E+06       75.5319214
             4583   114.941808E+06   -57.472012E+06   -57.471852E+06      -430.791504   344.827808E+06       3.16259527
             4584   114.940072E+06   -57.470948E+06   -57.471708E+06       93.0545120   344.826336E+06   1.28202759E+03
             4585   114.937864E+06   -57.476912E+06   -57.475916E+06       474.103088   344.828128E+06      -277.489960
             4586   114.941664E+06   -57.471988E+06   -57.471384E+06       365.759125   344.828128E+06       44.1522446
             4587   114.941128E+06   -57.473532E+06   -57.472748E+06       91.3190308   344.828448E+06      -524.960388
             4588   114.941952E+06   -57.471888E+06   -57.471972E+06       372.509399    344.82816E+06      -179.778198
             4589   114.949528E+06   -57.467812E+06    -57.46836E+06   1.40002698E+03   344.829952E+06      -564.550415
             4590   114.945104E+06    -57.47118E+06   -57.471612E+06   1.05190955E+03   344.828224E+06       213.023544
             4591    114.94072E+06   -57.473584E+06   -57.473272E+06      -482.690369   344.828384E+06      -409.903687
             4592   114.942944E+06    -57.47074E+06   -57.470044E+06      -165.216217   344.828352E+06       939.180420
             4593    114.94308E+06   -57.471836E+06   -57.471488E+06      -276.708862   344.828288E+06       160.557480
             4594    114.94052E+06   -57.472856E+06   -57.472872E+06       92.6594925   344.827744E+06       145.222610
             4595   114.943344E+06   -57.470404E+06    -57.47056E+06       28.1852303    344.82784E+06      -61.5943680
             4596   114.947024E+06   -57.465684E+06    -57.46822E+06   1.58944080E+03   344.828032E+06       220.818115
             4597   114.946536E+06   -57.469004E+06   -57.468248E+06  -1.36381189E+03    344.82688E+06      -223.683426
             4598   114.937248E+06   -57.474608E+06   -57.475292E+06  -1.95699194E+03   344.827904E+06  -1.22842285E+03
             4599   114.949232E+06   -57.465728E+06   -57.466032E+06      -597.296631   344.827264E+06      -153.763718
             4600    114.94276E+06   -57.471104E+06    -57.47146E+06      -350.820465   344.827776E+06      -270.690369
             4601   114.941904E+06   -57.471736E+06   -57.471784E+06       153.951462   344.827904E+06      -104.588768
             4602   114.948024E+06   -57.465832E+06   -57.465096E+06       483.471588   344.826272E+06       157.617203
             4603   114.943136E+06   -57.470508E+06   -57.469912E+06      -170.265518   344.827744E+06       22.9177685
             4604   114.942896E+06    -57.46916E+06   -57.469016E+06       368.187683   344.827456E+06       697.595642
             4605    114.93776E+06   -57.476548E+06   -57.477352E+06  -1.09296326E+03    344.83024E+06  -1.16785522E+03
             4606   114.956784E+06   -57.462716E+06   -57.462724E+06  -1.25649158E+03   344.827904E+06      -303.110626
             4607   114.948888E+06   -57.469564E+06   -57.469336E+06       746.638367   344.827744E+06      -956.273254
             4608   114.942696E+06   -57.471236E+06   -57.470984E+06       12.6878223   344.828064E+06      -92.5215302
             4609   114.944848E+06    -57.47196E+06   -57.472708E+06      -53.0428200   344.827552E+06       183.665985
             4610    114.94304E+06   -57.470468E+06   -57.470484E+06      -164.649414   344.828128E+06       43.9192009
             4611   114.943824E+06   -57.469712E+06   -57.470176E+06      -903.621826   344.827712E+06       153.935699
             4612   114.956472E+06    -57.46002E+06    -57.45948E+06   5.43822559E+03   344.826112E+06      -216.708405
             4613   114.923832E+06   -57.485556E+06    -57.48572E+06       100.136131   344.827008E+06      -178.516190
             4614   114.937784E+06   -57.475292E+06    -57.47588E+06      -311.724121   344.827392E+06       655.316223
             4615   114.953568E+06    -57.46178E+06   -57.463452E+06      -228.100433   344.828384E+06      -371.534119
             4616   114.938536E+06   -57.473744E+06      -57.475E+06  -1.28789294E+03   344.827456E+06  -1.50095361E+03
             4617    114.94264E+06    -57.47152E+06   -57.471456E+06       11.1647434   344.827936E+06      -103.505470
             4618    114.94276E+06   -57.471048E+06   -57.470792E+06       356.027954   344.828288E+06      -22.9331875
             4619   114.941728E+06   -57.472616E+06   -57.473036E+06       99.3223724   344.828352E+06       165.057510
             4620   114.948288E+06   -57.473352E+06    -57.47264E+06  -2.86240161E+03    344.82944E+06       119.766663
             4621   114.938168E+06   -57.472096E+06   -57.473064E+06      -900.726257   344.827584E+06       362.745819
             4622   114.939664E+06   -57.473916E+06   -57.472616E+06      -687.980896    344.82816E+06      -225.311325
             4623   114.945784E+06   -57.469524E+06   -57.470184E+06       197.142410      344.828E+06       247.646866
             4624   114.942232E+06   -57.472012E+06    -57.47092E+06       219.349121   344.828864E+06      -774.490295
             4625   114.945808E+06   -57.469096E+06   -57.469948E+06       587.428223   344.828928E+06       711.357117
             4626   114.961336E+06     -57.4605E+06   -57.460916E+06   3.67852051E+03    344.82976E+06       819.119263
             4627    114.94144E+06    -57.47288E+06    -57.47274E+06       841.333435   344.826336E+06       871.997803
             4628   114.946128E+06   -57.468276E+06   -57.468544E+06      -230.767197   344.827264E+06      -27.6086178
             4629    114.94128E+06   -57.473528E+06   -57.473764E+06      -975.586731     344.8296E+06       628.737488
             4630   114.950808E+06   -57.462848E+06   -57.460356E+06  -1.78762671E+03   344.829312E+06  -1.71630261E+03
             4631    114.95476E+06   -57.459316E+06   -57.457912E+06       651.842834     344.8272E+06       332.153259
             4632    114.93812E+06   -57.471716E+06    -57.47272E+06      -938.227173   344.828704E+06   1.91365747E+03
             4633   114.939192E+06   -57.473276E+06   -57.473744E+06      -122.378174   344.827136E+06      -52.9448929
             4634   114.946664E+06   -57.468344E+06   -57.468332E+06      -131.716827   344.827456E+06      -307.051025
             4635   114.965968E+06   -57.453168E+06    -57.45206E+06  -1.37016418E+03   344.826144E+06       328.615417
             4636   114.933424E+06   -57.476032E+06   -57.480336E+06   1.04048022E+03    344.83088E+06   1.80907910E+03
             4637     114.9406E+06   -57.473452E+06   -57.473476E+06       996.402954   344.828064E+06       302.414032
             4638   114.944512E+06    -57.47076E+06   -57.471152E+06  -5.02208740E+03   344.826304E+06       465.020325
             4639   114.942464E+06    -57.47138E+06   -57.470984E+06      -125.986725      344.828E+06      -204.705322
             4640   114.936224E+06   -57.477728E+06   -57.480244E+06      -139.981567   344.828064E+06       138.863434
             4641   114.942288E+06   -57.472112E+06   -57.472352E+06      -195.547577    344.82848E+06      -111.025711
             4642   114.941448E+06   -57.471908E+06   -57.471736E+06      -328.953491   344.827456E+06      -41.0889473
             4643   114.939528E+06    -57.47432E+06    -57.47478E+06      -353.511810   344.828512E+06       368.049194
             4644   114.945568E+06    -57.46954E+06   -57.469748E+06      -522.031616    344.82816E+06       210.122360
             4645   114.946752E+06   -57.467588E+06    -57.46704E+06       134.635880   344.827296E+06      -892.817444
             4646   114.936504E+06   -57.476968E+06   -57.477324E+06      -347.298401   344.828608E+06      -185.457001
             4647   114.940936E+06    -57.47338E+06   -57.473064E+06      -340.692322   344.828448E+06       58.5030403
             4648    114.94728E+06   -57.467748E+06   -57.468384E+06  -3.15517603E+03   344.826112E+06       266.078949
             4649   114.941552E+06    -57.47156E+06   -57.471952E+06      -631.265442   344.826848E+06      -217.317886
             4650   114.946984E+06   -57.465736E+06   -57.468096E+06       662.352356   344.825184E+06      -770.809814
             4651   114.943592E+06   -57.470992E+06   -57.470784E+06       196.456497    344.82848E+06      -62.6202965
             4652   114.943776E+06    -57.47036E+06   -57.470536E+06       127.451332   344.828096E+06       142.877640
             4653   114.944648E+06    -57.46986E+06   -57.470112E+06      -53.9607658   344.827808E+06       134.663361
             4654   114.942856E+06   -57.470932E+06   -57.470924E+06       210.301346   344.827904E+06       65.4663696
             4655   114.944408E+06   -57.469152E+06   -57.471724E+06       148.741898   344.827264E+06       309.848816
             4656   114.964968E+06   -57.445836E+06   -57.445672E+06  -4.10207471E+03   344.821632E+06      -71.3144684
             4657   114.941288E+06   -57.472368E+06   -57.472512E+06      -211.034424   344.828192E+06       18.7989216
             4658   114.941408E+06   -57.472268E+06   -57.472196E+06       92.2583847   344.828032E+06       73.3061142
             4659   114.996792E+06   -57.436036E+06   -57.432536E+06       831.626160   344.830272E+06       231.228470
             4660   114.938664E+06   -57.474752E+06   -57.474072E+06       19.4448681   344.828256E+06       507.383545
             4661   114.943072E+06    -57.47066E+06   -57.470784E+06       57.9946823   344.827776E+06       21.1064167
             4662   114.945272E+06   -57.468988E+06   -57.468852E+06       195.616516   344.827552E+06       257.341919
             4663   114.943608E+06   -57.470324E+06   -57.470272E+06      -7.70733786   344.827904E+06      -8.92865181
             4664    114.94224E+06   -57.471908E+06   -57.472224E+06      -111.159096   344.827904E+06      -178.793655
             4665   114.942216E+06    -57.47152E+06   -57.471664E+06      -6.89267826   344.828064E+06       58.1210403
             4666   114.942192E+06   -57.471584E+06    -57.47172E+06       130.196136   344.827968E+06      -24.6414566
             4667   114.942904E+06   -57.471092E+06   -57.471044E+06       17.1784286   344.828096E+06      -16.2244949
             4668   114.943232E+06   -57.470784E+06   -57.470688E+06      -26.2505512    344.82784E+06      -171.131653
             4669   114.945408E+06   -57.467908E+06   -57.466856E+06   1.14998950E+03   344.827776E+06       485.353271
             4670   114.942224E+06    -57.47166E+06   -57.471816E+06       89.3486176   344.828288E+06       21.0697155
             4671   114.942408E+06   -57.471336E+06   -57.471508E+06       262.550781   344.827904E+06       93.2612076
             4672   114.941856E+06    -57.47146E+06    -57.47174E+06       31.6162453   344.827936E+06      -42.7951241
             4673   114.940704E+06   -57.473448E+06   -57.472924E+06       118.413765   344.828384E+06      -70.6493378
             4674    114.94356E+06   -57.470748E+06   -57.470668E+06      -22.8164616    344.82784E+06       248.315170
             4675   114.943128E+06   -57.470432E+06    -57.47072E+06      -63.5940475   344.827904E+06      -42.5083122
             4676   114.943448E+06   -57.469952E+06   -57.469364E+06      -101.964996    344.82848E+06      -445.041870
             4677   114.943944E+06    -57.47074E+06   -57.470668E+06      -303.708923    344.82784E+06      -188.621307
             4678   114.943088E+06   -57.471096E+06   -57.471312E+06      -159.212143   344.827968E+06      -290.741608
             4679    114.94028E+06   -57.473028E+06   -57.473032E+06       267.501099   344.828224E+06       129.718048
             4680   114.944584E+06   -57.469964E+06   -57.469568E+06       39.7289047   344.827744E+06      -214.853897
             4681   114.948856E+06   -57.465032E+06   -57.465212E+06      -193.865753   344.827424E+06       82.2583466
             4682   114.945176E+06    -57.46762E+06   -57.470456E+06   1.50637268E+03   344.825568E+06      -188.559021
             4683     114.9508E+06    -57.46558E+06    -57.46632E+06      -79.2099838    344.82784E+06       736.633789
             4684    114.94172E+06   -57.471984E+06   -57.471944E+06      -333.944611   344.827712E+06       21.4843960
             4685   114.945248E+06   -57.465924E+06   -57.467008E+06  -1.54283850E+03   344.826816E+06       261.528015
             4686    114.94152E+06     -57.4724E+06    -57.47314E+06   821.945369E-03   344.828416E+06      -48.6833382
             4687   114.947096E+06   -57.467348E+06    -57.46744E+06      -301.010834   344.827904E+06      -309.278412
             4688    114.94368E+06   -57.469936E+06   -57.472792E+06  -1.02670337E+03   344.828224E+06       169.329315
             4689   114.951304E+06   -57.465428E+06   -57.461992E+06      -900.180481    344.83024E+06      -665.296387
             4690   114.943408E+06   -57.470436E+06   -57.470048E+06       56.1599731   344.827936E+06       96.5320663
             4691   114.942304E+06   -57.471624E+06   -57.471136E+06       177.701721   344.828256E+06      -249.162292
             4692    114.95144E+06   -57.462556E+06    -57.46462E+06      -939.271790   344.827616E+06      -610.705261
             4693   114.939464E+06   -57.473712E+06   -57.473744E+06      -351.579651   344.827744E+06      -7.58986902
             4694   114.943552E+06    -57.47076E+06   -57.470872E+06      -178.775269   344.827808E+06       104.689529
             4695    114.94184E+06   -57.472292E+06   -57.472236E+06       90.4350052   344.828096E+06      -40.8783264
             4696   114.945952E+06   -57.469188E+06   -57.468844E+06       41.4220428   344.828416E+06       35.4544716
             4697   114.943096E+06    -57.47074E+06   -57.470948E+06       96.9946365    344.82752E+06      -157.519638
             4698   114.941216E+06   -57.472384E+06    -57.47256E+06       223.084900   344.827616E+06      -137.656982
             4699   114.943064E+06   -57.470732E+06   -57.470872E+06       137.095200   344.827744E+06      -22.8644867
             4700   114.943792E+06   -57.470044E+06     -57.4701E+06       126.909416   344.827616E+06      -20.7376480
             4701   114.945096E+06   -57.469416E+06   -57.469388E+06      -182.436340    344.82736E+06      -381.075043
             4702   114.944168E+06   -57.470344E+06   -57.470476E+06       86.7413635   344.828128E+06      -218.189102
             4703   114.946152E+06   -57.468192E+06   -57.468168E+06       40.4459038   344.827328E+06       33.7953491
             4704   114.946024E+06   -57.468004E+06   -57.468612E+06      -219.872070   344.827968E+06      -77.2318192
             4705      114.946E+06   -57.470232E+06   -57.469304E+06       158.394897   344.827584E+06       547.464355
             4706   114.942616E+06    -57.47114E+06   -57.471464E+06      -50.6267853   344.828096E+06       190.938721
             4707   114.937864E+06   -57.475172E+06   -57.475792E+06      -210.287735   344.828992E+06       48.2760963
             4708   114.944744E+06   -57.468516E+06   -57.469212E+06      -528.753967   344.827872E+06       427.356232
             4709    114.94408E+06   -57.470444E+06   -57.471304E+06  -1.07395142E+03   344.828768E+06       537.515503
             4710    114.94104E+06    -57.47224E+06   -57.472032E+06       559.112061   344.827872E+06       149.811218
             4711    114.93932E+06   -57.473332E+06    -57.47398E+06      -871.818604    344.82752E+06      -122.334404
             4712   114.945768E+06   -57.467628E+06    -57.46682E+06      -304.148407   344.827648E+06      -402.279816
             4713   114.937032E+06    -57.47696E+06   -57.477572E+06      -30.7377625    344.82944E+06       250.254333
             4714   114.940112E+06    -57.47346E+06    -57.47456E+06      -210.106689   344.827296E+06      -305.125427
             4715   114.937704E+06   -57.477628E+06   -57.477208E+06   1.71532654E+03   344.830688E+06      -185.550842
             4716   114.937616E+06   -57.474556E+06    -57.47648E+06      -849.516174   344.827296E+06      -321.266663
             4717   114.941768E+06   -57.472728E+06   -57.471976E+06       643.740662   344.828288E+06      -139.226257
             4718   114.944792E+06   -57.469408E+06    -57.46962E+06       93.7808075   344.827424E+06      -124.275604
             4719   114.942632E+06   -57.471228E+06   -57.471316E+06      -69.7768936    344.82752E+06      -153.507416
             4720   114.926752E+06     -57.4832E+06   -57.482712E+06       839.093506   344.825376E+06      -198.540741
             4721     114.9426E+06   -57.472496E+06   -57.472404E+06   6.64662793E+03   344.830912E+06      -525.133057
             4722   114.942848E+06   -57.471852E+06   -57.472716E+06      -137.236130   344.827808E+06      -509.348969
             4723   114.939592E+06    -57.47254E+06    -57.47146E+06       577.455627   344.826048E+06       431.340424
             4724   114.952288E+06   -57.462352E+06   -57.464216E+06  -1.91457458E+03    344.82896E+06      -190.640564
             4725   114.937048E+06   -57.473472E+06   -57.474932E+06  -1.59520459E+03      344.828E+06      -415.811279
             4726   114.944104E+06   -57.469812E+06     -57.4698E+06       62.5692635    344.82816E+06       69.4319534
             4727   114.943456E+06    -57.47058E+06   -57.470372E+06      -152.384155   344.827904E+06      -144.521652
             4728   114.942736E+06   -57.471476E+06   -57.471048E+06      -380.407562   344.827936E+06      -200.403687
             4729   114.934432E+06   -57.476008E+06   -57.478792E+06   1.53951904E+03   344.830048E+06       77.4651871
             4730   114.961912E+06   -57.453012E+06   -57.452212E+06  -2.61687085E+03   344.823616E+06   1.18280554E+03
             4731   114.943048E+06   -57.471788E+06   -57.470524E+06       400.232117    344.82832E+06      -380.964294
             4732   114.943104E+06   -57.470436E+06   -57.470404E+06       161.353012    344.82816E+06      -283.513580
             4733   114.943672E+06   -57.470324E+06     -57.4703E+06       101.566032   344.827776E+06       70.6919556
             4734     114.9412E+06    -57.47238E+06    -57.47262E+06       101.116859   344.827616E+06       70.9750595
             4735   114.942216E+06   -57.471396E+06   -57.471564E+06       319.390167   344.827616E+06       379.924927
             4736    114.94148E+06   -57.472604E+06   -57.471916E+06       214.032837   344.828256E+06      -261.717255
             4737   114.944224E+06   -57.469856E+06   -57.469744E+06       25.5647011   344.827904E+06       31.0667019
             4738   114.941488E+06   -57.472976E+06    -57.47264E+06       516.916199    344.82816E+06      -72.7814941
             4739   114.943608E+06   -57.473448E+06    -57.47464E+06       207.037018   344.828544E+06      -907.643311
             4740    114.93652E+06   -57.475688E+06   -57.475824E+06       235.153778      344.828E+06       141.366287
             4741   114.944576E+06    -57.47064E+06   -57.470556E+06       107.394127    344.82736E+06      -100.276306
             4742   114.939448E+06    -57.47674E+06   -57.477052E+06       500.551575   344.830976E+06       809.642883
             4743   114.944624E+06   -57.470784E+06   -57.469848E+06      -173.082520   344.828928E+06       115.917595
             4744   114.949696E+06   -57.465684E+06   -57.465288E+06   1.38331299E+03   344.828256E+06       211.683151
             4745   114.953544E+06   -57.462328E+06   -57.462464E+06   1.26666736E+03   344.828096E+06      -141.908737
             4746   114.933632E+06   -57.478752E+06   -57.480692E+06   2.55404956E+03   344.829696E+06      -120.518738
             4747   114.944752E+06    -57.46986E+06   -57.468996E+06       396.151428   344.828768E+06       901.361816
             4748   114.943048E+06   -57.470936E+06   -57.470896E+06      -222.778336   344.828064E+06       8.25998974
             4749   114.944112E+06   -57.470028E+06   -57.470052E+06       88.6754684   344.827616E+06      -54.3776932
             4750   114.942136E+06   -57.471424E+06   -57.471572E+06       75.2491684   344.827584E+06       234.648071
             4751   114.942424E+06   -57.471692E+06   -57.471292E+06       259.153168   344.828288E+06      -121.716766
             4752    114.94372E+06   -57.469812E+06    -57.46978E+06      -78.6879044    344.82736E+06      -18.0022774
             4753   114.940032E+06    -57.47426E+06   -57.473656E+06       602.011536   344.828576E+06      -90.0749130
             4754   114.942448E+06   -57.471816E+06   -57.471788E+06      -397.982697   344.828288E+06      -92.8238449
             4755   114.937608E+06   -57.475468E+06   -57.476968E+06      -899.613098   344.826176E+06  -1.04067920E+03
             4756   114.942624E+06   -57.471452E+06   -57.471564E+06      -272.598236   344.828032E+06       154.082260
             4757   114.925816E+06     -57.4858E+06   -57.484616E+06      -373.997742   344.831488E+06       748.909851
             4758    114.94296E+06    -57.47102E+06   -57.470736E+06      -23.7601452   344.827904E+06      -43.3661194
             4759     114.9426E+06   -57.471116E+06   -57.471252E+06       115.508476   344.827744E+06      -27.2502975
             4760   114.945064E+06   -57.469632E+06   -57.467688E+06      -204.668121   344.829504E+06      -180.953522
             4761   114.943144E+06   -57.471044E+06    -57.47106E+06      -31.3014221   344.827904E+06      -71.9756241
             4762   114.940504E+06   -57.472324E+06      -57.472E+06      -403.490143   344.827904E+06       596.938354
             4763   114.942552E+06   -57.471148E+06   -57.471244E+06       152.273026   344.827712E+06      -61.3141136
             4764   114.941928E+06   -57.471884E+06   -57.471944E+06       62.5127907   344.828192E+06      -19.1717396
             4765   114.940744E+06    -57.47356E+06   -57.473612E+06       899.410645   344.827264E+06      -8.71026134
             4766   114.947456E+06   -57.469572E+06     -57.4681E+06  -3.11200854E+03   344.828864E+06      -879.909546
             4767    114.88416E+06   -57.517424E+06   -57.517788E+06  -1.89018469E+03    344.83472E+06       305.086761
             4768   114.947856E+06   -57.467076E+06   -57.467976E+06      -738.291870   344.827136E+06      -36.3292885
             4769   114.941432E+06    -57.47642E+06   -57.475108E+06       457.019806   344.832192E+06      -678.420288
             4770   114.943752E+06   -57.470508E+06   -57.470944E+06      -148.861145   344.828288E+06       204.229614
             4771   114.951408E+06   -57.461176E+06   -57.460644E+06       665.590881   344.827296E+06   1.91714001E+03
             4772   114.936104E+06   -57.475036E+06   -57.476656E+06       144.278366   344.826624E+06   1.16761780E+03
             4773   114.949344E+06     -57.4688E+06    -57.46782E+06  -1.73047449E+03   344.830592E+06  -1.14852515E+03
             4774   114.946056E+06   -57.470668E+06   -57.473212E+06       724.374329    344.82976E+06   1.59118652E+03
             4775   115.005608E+06   -57.419804E+06   -57.422452E+06   4.10089307E+03   344.820704E+06  -1.26109607E+03
             4776   114.945912E+06    -57.46664E+06   -57.469024E+06       820.477905   344.828064E+06      -304.751678
             4777   114.957856E+06   -57.461956E+06   -57.458624E+06       620.467529   344.829184E+06       544.286865
             4778   114.939664E+06   -57.473068E+06   -57.473452E+06       630.528015   344.827232E+06       279.167725
             4779   114.942808E+06   -57.472036E+06   -57.470152E+06       362.738220   344.830336E+06      -155.981384
             4780   114.944528E+06   -57.467704E+06   -57.469428E+06      -759.025085   344.825856E+06       164.181213
             4781   114.943848E+06   -57.470508E+06   -57.471588E+06       459.754791    344.82864E+06       740.356812
             4782   114.938384E+06   -57.478892E+06   -57.475328E+06   1.69915540E+03     344.8312E+06       659.357971
             4783   114.935744E+06   -57.477876E+06    -57.47724E+06      -317.138641   344.827168E+06      -638.324585
             4784   114.897616E+06   -57.503516E+06    -57.50308E+06   1.43195056E+03   344.830016E+06       534.110229
             4785    114.94656E+06   -57.467624E+06   -57.467332E+06       675.747375   344.828256E+06       484.443695
             4786   114.945048E+06   -57.468508E+06   -57.468776E+06       87.0526428   344.827296E+06      -171.112442
             4787   114.941744E+06    -57.47158E+06   -57.471664E+06       285.379303   344.828128E+06      -110.509926
             4788   114.941936E+06   -57.471612E+06   -57.471592E+06       80.7840500   344.828064E+06       118.629730
             4789   114.939328E+06   -57.475932E+06   -57.477932E+06       343.249146   344.828192E+06      -116.199562
             4790   114.936064E+06   -57.474232E+06    -57.47656E+06      -320.374878   344.826144E+06      -106.773788
             4791   114.941856E+06    -57.47212E+06   -57.471708E+06       4.67248774   344.828032E+06       14.8989506
             4792   114.950776E+06     -57.4641E+06   -57.466432E+06       520.253052   344.826912E+06      -880.749451
             4793   114.940568E+06   -57.473492E+06   -57.475252E+06       328.256531   344.828288E+06      -192.151184
             4794   114.942904E+06   -57.471004E+06   -57.470648E+06       14.4450226    344.82768E+06      -69.7719727
             4795   114.946496E+06   -57.468284E+06   -57.465928E+06      -195.290314    344.82784E+06       524.659180
             4796   114.943896E+06   -57.470408E+06   -57.469676E+06       217.135681   344.827744E+06      -50.4282074
             4797   114.945984E+06   -57.463572E+06   -57.463224E+06      -412.926117   344.826624E+06       357.360535
             4798   114.942368E+06   -57.472096E+06   -57.475016E+06       911.998962   344.828128E+06       21.5735722
             4799   114.933128E+06   -57.479796E+06   -57.480616E+06      -7.81525087   344.829728E+06      -111.299385
             4800   114.942688E+06   -57.470896E+06   -57.471292E+06       29.0960941    344.82736E+06       176.160797
             4801   114.932712E+06   -57.475908E+06   -57.479268E+06   1.35709119E+03    344.82976E+06       161.791138
             4802    114.92848E+06   -57.481176E+06   -57.478716E+06  -1.52598523E+03   344.827552E+06      -603.759033
             4803    114.94656E+06   -57.469304E+06   -57.470956E+06      -430.251892   344.828128E+06      -151.057709
             4804   114.942184E+06    -57.47424E+06    -57.46922E+06       120.179832   344.826496E+06      -224.825195
             4805    114.95228E+06    -57.46344E+06   -57.463828E+06       22.5982876   344.828576E+06      -59.5495796
             4806   114.944488E+06   -57.470864E+06    -57.47064E+06       168.692963   344.827424E+06      -27.4441738
             4807   114.941904E+06   -57.471812E+06   -57.471692E+06      -55.8456039    344.82832E+06      -333.711121
             4808   114.943008E+06   -57.471084E+06   -57.471392E+06       517.302979    344.82784E+06       318.669312
             4809   114.947864E+06   -57.466492E+06   -57.464732E+06   3.00182959E+03   344.826144E+06       354.042023
             4810   114.943072E+06    -57.47404E+06   -57.470784E+06   1.37334045E+03   344.830112E+06       754.683167
             4811   114.943248E+06    -57.47084E+06   -57.470916E+06      -31.2305393    344.82832E+06      -384.197479
             4812   114.944464E+06   -57.470124E+06   -57.469624E+06       256.540802     344.8272E+06   1.16537903E+03
             4813     114.9626E+06   -57.450776E+06   -57.449696E+06   4.36268018E+03   344.824512E+06       818.152344
             4814   114.934408E+06   -57.481368E+06   -57.481756E+06      -60.3094940   344.828928E+06   2.15362183E+03
             4815    114.89792E+06     -57.5043E+06   -57.505268E+06       524.764587   344.831328E+06      -288.688690
             4816    114.93736E+06    -57.47686E+06   -57.475644E+06       33.4840355    344.82784E+06      -585.467590
             4817    114.93248E+06    -57.47812E+06   -57.477952E+06  -1.49343530E+03   344.828448E+06      -396.180542
             4818   114.946296E+06   -57.466508E+06   -57.466672E+06       11.3664532   344.827808E+06      -223.450684
             4819   114.943184E+06   -57.470192E+06   -57.469924E+06       448.786530   344.828192E+06      -411.137146
             4820   114.972232E+06   -57.448052E+06   -57.448032E+06   2.86199365E+03   344.826176E+06       341.746613
             4821   114.942792E+06   -57.470528E+06     -57.4701E+06       350.731750   344.828416E+06      -337.348175
             4822   114.955088E+06   -57.461704E+06   -57.457584E+06       484.797668   344.827104E+06      -472.970520
             4823   114.940056E+06   -57.475316E+06   -57.474936E+06      -419.531830   344.830368E+06       330.136292
             4824   114.945528E+06     -57.4685E+06   -57.468136E+06      -340.920563    344.82736E+06      -138.583298
             4825   114.939272E+06    -57.47446E+06   -57.475384E+06      -354.952393    344.82736E+06      -342.218872
             4826   114.949216E+06   -57.465164E+06   -57.465308E+06       588.324829    344.82656E+06      -25.2211552
             4827   114.948472E+06   -57.465784E+06   -57.465196E+06       396.929138   344.826592E+06      -211.840240
             4828   114.947416E+06   -57.467488E+06   -57.468284E+06      -281.598358   344.827104E+06      -103.805611
             4829   114.943936E+06   -57.468712E+06    -57.47026E+06       604.316772   344.827168E+06       318.724152
             4830     114.9428E+06   -57.471916E+06   -57.471008E+06       368.481598   344.828384E+06       101.738152
             4831   114.940184E+06   -57.472356E+06   -57.474444E+06      -376.950104   344.827072E+06      -149.683334
             4832   114.943472E+06    -57.47174E+06   -57.471804E+06      -670.009888   344.828128E+06      -205.644424
             4833   114.940664E+06   -57.472904E+06    -57.47336E+06      -50.4133530    344.82848E+06       69.9500885
             4834   114.939104E+06    -57.47446E+06    -57.47448E+06      -103.514259   344.828128E+06       20.2073708
             4835   114.948432E+06   -57.466728E+06    -57.46702E+06       674.487610    344.82752E+06       47.5465012
             4836   114.942752E+06   -57.471132E+06   -57.471392E+06      -50.8463326   344.827872E+06       252.763901
             4837   114.942192E+06    -57.47174E+06     -57.4718E+06      -109.333870    344.82768E+06      -86.1129913
             4838   114.942408E+06    -57.47182E+06   -57.471412E+06       38.2004967   344.828096E+06       409.460999
             4839   114.941512E+06   -57.472056E+06   -57.471876E+06      -426.026733   344.827904E+06      -39.0676880
             4840   114.940808E+06   -57.474632E+06   -57.475544E+06  -2.50003564E+03   344.828768E+06      -346.375885
             4841   114.930552E+06   -57.481104E+06    -57.48206E+06       664.162354    344.82704E+06      -369.425842
             4842   114.943448E+06   -57.470048E+06    -57.47036E+06      -88.5068970   344.827776E+06      -36.1928635
             4843   114.941704E+06   -57.473232E+06   -57.472312E+06      -568.663391   344.828032E+06       75.5974579
             4844   114.943568E+06   -57.470532E+06    -57.47062E+06       291.302795   344.827808E+06      -98.6857910
             4845   114.940456E+06   -57.475512E+06    -57.47528E+06   1.01102161E+03   344.830688E+06       480.785370
             4846    114.92644E+06   -57.484564E+06   -57.484252E+06   4.24171143E+03   344.828384E+06       228.360367
             4847   114.949592E+06   -57.465196E+06   -57.463984E+06        2.463E+03     344.8272E+06   1.19086511E+03
             4848   114.940768E+06   -57.473752E+06   -57.474716E+06      -389.207855   344.828064E+06      -184.662903
             4849    114.93136E+06    -57.48242E+06   -57.478908E+06   1.15466943E+03   344.828608E+06       345.359985
             4850   114.946848E+06   -57.467352E+06   -57.467436E+06       278.905396   344.826592E+06      -141.687225
             4851   114.940256E+06   -57.472596E+06   -57.472608E+06       239.359970    344.82688E+06       101.930023
             4852   114.937624E+06   -57.475444E+06    -57.47502E+06      -582.751892   344.828192E+06      -77.6658630
             4853      114.944E+06   -57.470512E+06   -57.469612E+06      -610.593140    344.82752E+06       39.5027924
             4854   114.922664E+06    -57.49068E+06   -57.491228E+06  -3.30923071E+03   344.831616E+06       130.579926
             4855   114.944016E+06   -57.468664E+06   -57.467448E+06   1.76375964E+03   344.822784E+06       655.069336
             4856    114.95424E+06    -57.46332E+06   -57.462496E+06  -2.18612280E+03   344.828992E+06      -379.005859
             4857   114.911384E+06   -57.491688E+06   -57.493036E+06   1.04653796E+03   344.826176E+06   1.54006165E+03
             4858   114.951272E+06   -57.465244E+06   -57.464108E+06  -1.27713586E+03   344.828512E+06      -583.229492
             4859   114.974136E+06   -57.444592E+06   -57.444132E+06       49.0210571   344.825216E+06      -54.0368080
             4860   114.953184E+06   -57.465132E+06   -57.463648E+06  -1.64376221E+03    344.82784E+06       318.290222
             4861   114.943296E+06   -57.470536E+06   -57.470776E+06      -103.148415    344.82784E+06      -135.623001
             4862   114.943144E+06   -57.470456E+06   -57.470276E+06       36.6283150   344.827904E+06       38.7410393
             4863   114.941952E+06   -57.471736E+06   -57.471828E+06       190.565872   344.827904E+06       64.0817719
             4864   114.941632E+06   -57.472148E+06   -57.472268E+06      -56.5368805   344.828192E+06       68.9182587
             4865   114.941024E+06   -57.472936E+06   -57.473108E+06       81.5496292    344.82784E+06      -72.2808456
             4866   114.923248E+06    -57.48904E+06   -57.489272E+06   1.26943091E+03   344.831104E+06      -17.7638245
             4867    114.94204E+06   -57.474288E+06   -57.475412E+06      -165.567078   344.830144E+06       638.514832
             4868   114.947864E+06    -57.46944E+06   -57.470796E+06  -1.04477222E+03   344.827936E+06      -604.659607
             4869   114.936208E+06   -57.473776E+06   -57.476484E+06   1.25449060E+03     344.8304E+06       311.209381


  Minimum           114.843544E+06   -57.552076E+06   -57.553028E+06  -11.9451582E+03   344.812992E+06  -3.04785669E+03
       At Element             3561             3348             3348              665               37              648

  Maximum           115.049072E+06   -57.381908E+06   -57.384448E+06   11.8778008E+03   344.841664E+06   2.87569287E+03
       At Element             3182             1126             1126             1871             3348              886

            Total   559.657443E+09  -279.826234E+09  -279.826245E+09   108.734112E+03   1.67896700E+12   36.0688976E+03


********************************************************************************
Field Output Report, written Mon Jan 14 22:11:16 2019

Source 1
---------

   ODB: C:/AbaqusTemp/SolidSphereSmall_Z.odb
   Step: Step-1
   Frame: Increment      1: Step Time =    1.000

Loc 1 : Centroidal values from source 1

Output sorted by column "Element Label".

Field Output reported at element centroid for part: PART-1-1

          Element            S.S11            S.S22            S.S33            S.S12            S.S13            S.S23
            Label           @Loc 1           @Loc 1           @Loc 1           @Loc 1           @Loc 1           @Loc 1
------------------------------------------------------------------------------------------------------------------------
                1   114.943504E+06   -57.469796E+06    -57.46974E+06      -109.266495   344.827584E+06      -28.5126724
                2   114.942024E+06   -57.471432E+06   -57.471192E+06       46.0374031   344.827904E+06      -104.190506
                3   114.942424E+06   -57.470932E+06   -57.470732E+06      -53.3500671   344.827712E+06      -29.1061420
                4   114.943328E+06    -57.47066E+06   -57.470556E+06       131.158905   344.827808E+06       64.7496414
                5   114.942768E+06   -57.471328E+06   -57.471036E+06       28.1541119   344.827904E+06       9.23493958
                6    114.94312E+06    -57.47088E+06    -57.47064E+06       22.0723915    344.82784E+06       57.5407181
                7   114.943088E+06   -57.470936E+06   -57.470712E+06      -10.7456474   344.827872E+06       57.7120132
                8   114.943176E+06    -57.47062E+06     -57.4704E+06       30.2896385   344.827648E+06       27.0622978
                9   114.942872E+06   -57.470628E+06   -57.470188E+06       19.9363651   344.827712E+06      -38.7628250
               10   114.942752E+06   -57.470756E+06   -57.470616E+06      -20.3784409   344.827648E+06      -44.0586433
               11   114.943536E+06   -57.470096E+06   -57.469756E+06       1.73641849   344.827712E+06      -78.2430496
               12   114.943008E+06    -57.47048E+06   -57.470148E+06      -38.0410156   344.827648E+06      -116.764366
               13   114.941024E+06    -57.47276E+06   -57.472172E+06       133.172607   344.827808E+06       5.57302475
               14   114.941592E+06   -57.471788E+06   -57.471628E+06       180.259460    344.82736E+06       286.350220
               15   114.942216E+06   -57.471272E+06   -57.470444E+06       298.397858   344.827424E+06       86.6789856
               16   114.943224E+06   -57.470548E+06   -57.470124E+06      -2.64045477   344.827744E+06      -109.866753
               17   114.942832E+06   -57.470912E+06    -57.47054E+06      -117.740173   344.827648E+06      -131.865234
               18   114.944312E+06   -57.469568E+06   -57.469476E+06      -137.145599    344.82768E+06       187.831390
               19   114.940072E+06   -57.473976E+06    -57.47466E+06      -736.781738    344.82864E+06       443.111816
               20   114.940064E+06   -57.474068E+06   -57.475464E+06      -122.107109   344.828256E+06      -493.930603
               21   114.942048E+06   -57.471796E+06   -57.471688E+06      -26.4043159   344.827968E+06       74.6177063
               22   114.943808E+06   -57.470436E+06   -57.470608E+06      -329.645721    344.82816E+06      -23.8988094
               23   114.943344E+06   -57.470064E+06     -57.4716E+06      -399.387085   344.828224E+06       156.145889
               24   114.944656E+06   -57.469096E+06   -57.468912E+06       66.6892853   344.827552E+06       211.743256
               25   114.943472E+06   -57.470508E+06   -57.470236E+06      -55.7378578    344.82784E+06      -104.991982
               26   114.941824E+06   -57.471816E+06   -57.471604E+06      -5.60589743   344.827776E+06      -80.0248489
               27   114.942216E+06   -57.471544E+06   -57.471156E+06      -32.2390671   344.827936E+06      -39.9305458
               28   114.944056E+06    -57.47068E+06   -57.470964E+06  -1.45822827E+03   344.829152E+06  -1.81522046E+03
               29   114.944088E+06   -57.469528E+06   -57.469284E+06       122.106613   344.827712E+06       226.068832
               30   114.942384E+06   -57.471184E+06   -57.470936E+06       3.08114982   344.827744E+06       118.814751
               31    114.94376E+06   -57.469688E+06   -57.469512E+06       96.7116013   344.827968E+06       4.19527531
               32   114.942976E+06   -57.470676E+06   -57.470256E+06       2.79575801   344.827712E+06       8.64699745
               33   114.942536E+06   -57.471052E+06   -57.470632E+06      -30.8496513   344.827712E+06      -6.00934219
               34     114.9428E+06   -57.470976E+06    -57.47074E+06      -54.4083023   344.827712E+06       38.5900421
               35   114.942192E+06   -57.471356E+06   -57.471456E+06      -13.7346983   344.828032E+06       184.002365
               36    114.94292E+06   -57.470436E+06    -57.47046E+06       69.9907379   344.827968E+06      -12.4170465
               37   115.037776E+06    -57.38852E+06    -57.38636E+06  -5.02323193E+03   344.812992E+06   1.22596509E+03
               38   114.942368E+06   -57.471104E+06   -57.471004E+06      -142.308807   344.827648E+06       64.3676682
               39    114.94268E+06      -57.471E+06    -57.47078E+06       57.9302788   344.827904E+06      -49.9041443
               40    114.94292E+06   -57.470028E+06    -57.47002E+06      -121.860626   344.827968E+06       186.110062
               41   114.943488E+06    -57.46956E+06   -57.469692E+06      -192.678925   344.827552E+06      -24.7780838
               42   114.944576E+06   -57.468848E+06   -57.468176E+06       93.8979568   344.827648E+06       857.768066
               43    114.91988E+06   -57.486124E+06   -57.487068E+06   4.33820117E+03   344.826944E+06       387.588409
               44   114.939744E+06   -57.472288E+06   -57.473124E+06      -9.95792484   344.827008E+06       141.621338
               45    114.93964E+06   -57.472396E+06   -57.473584E+06       4.00272369   344.826656E+06  -675.413907E-03
               46   114.939008E+06    -57.47412E+06   -57.475292E+06      -275.352478   344.827584E+06       214.995209
               47   114.947304E+06   -57.464016E+06    -57.46446E+06       561.260315    344.82672E+06       699.271729
               48   114.939088E+06    -57.47346E+06   -57.473752E+06      -4.03901434   344.826944E+06      -295.504120
               49   114.944656E+06   -57.468228E+06   -57.468672E+06       788.634460   344.827776E+06       350.480194
               50   114.977208E+06    -57.44172E+06   -57.441804E+06  -4.78476953E+03    344.82112E+06      -427.496613
               51   114.950264E+06   -57.465988E+06    -57.46538E+06      -988.383301   344.828672E+06      -245.470413
               52   114.936144E+06   -57.479352E+06   -57.477928E+06   3.27887354E+03    344.83008E+06      -150.146378
               53     114.9384E+06    -57.47436E+06     -57.4743E+06      -588.824463   344.827168E+06  -1.02708960E+03
               54   114.943008E+06   -57.470712E+06    -57.47048E+06      -136.567322   344.827904E+06       119.088181
               55   114.944048E+06   -57.469656E+06   -57.469728E+06      -579.092102   344.827584E+06      -113.625496
               56   114.943232E+06   -57.470748E+06   -57.470632E+06      -285.794403   344.827552E+06      -1.20010221
               57   114.941464E+06   -57.472788E+06   -57.472388E+06       20.5791302   344.827712E+06      -85.1835785
               58   114.945392E+06   -57.469256E+06   -57.469144E+06      -103.434387   344.827328E+06       89.1175079
               59   114.941768E+06    -57.47224E+06    -57.47198E+06       62.8297653   344.827712E+06      -35.2221451
               60   114.944128E+06   -57.470496E+06    -57.47084E+06      -147.275070   344.827232E+06       120.246437
               61   114.942656E+06   -57.471492E+06   -57.471204E+06      -52.7273979   344.827936E+06      -54.2524338
               62      114.942E+06   -57.472528E+06   -57.472008E+06       123.810684   344.827872E+06       76.6061401
               63   114.943072E+06   -57.470968E+06   -57.470608E+06       146.124344    344.82784E+06       67.1501694
               64   114.942336E+06   -57.471476E+06   -57.471192E+06       102.185532   344.827776E+06       66.9766006
               65   114.939288E+06   -57.473848E+06    -57.47342E+06      -57.1009369    344.82848E+06       181.082779
               66    114.94116E+06   -57.472672E+06   -57.472276E+06      -168.935944    344.82848E+06       296.577698
               67   114.939224E+06   -57.474216E+06   -57.473684E+06   2.15166357E+03    344.82944E+06      -315.258209
               68    114.94376E+06   -57.470224E+06   -57.470008E+06      -149.101471   344.828192E+06      -184.498047
               69   114.937024E+06    -57.47508E+06   -57.474252E+06       244.178055   344.828128E+06      -197.309052
               70   114.941872E+06   -57.471784E+06   -57.471796E+06       177.073349   344.827776E+06      -213.252975
               71    114.94536E+06   -57.468696E+06   -57.468452E+06       7.98120117    344.82768E+06      -74.8559647
               72   114.937536E+06   -57.475496E+06   -57.475724E+06      -15.1827154   344.826592E+06      -562.184387
               73   114.941616E+06    -57.47262E+06   -57.472816E+06      -295.830322   344.828096E+06       190.990723
               74   114.947224E+06   -57.467396E+06   -57.467804E+06      -256.445129   344.827424E+06      -39.4614716
               75   114.940024E+06   -57.473944E+06   -57.474352E+06      -395.217590   344.828384E+06       202.695297
               76   114.944056E+06   -57.470164E+06   -57.470112E+06       53.1160431      344.828E+06      -53.5169411
               77   114.942296E+06   -57.471696E+06   -57.471436E+06      -64.0611725   344.828224E+06      -3.15352893
               78   114.942656E+06    -57.47134E+06   -57.471108E+06       73.6451035   344.828032E+06       78.9806137
               79   114.943336E+06    -57.47112E+06   -57.471172E+06       37.7942886   344.828096E+06       91.8821564
               80    114.93748E+06    -57.47316E+06   -57.473392E+06      -152.976852   344.827328E+06       682.424683
               81   114.941792E+06   -57.471396E+06   -57.471228E+06      -11.8963575   344.827648E+06      -347.039368
               82     114.9668E+06   -57.445096E+06   -57.449732E+06  -4.61161523E+03   344.820608E+06       57.7671356
               83   114.947088E+06   -57.466856E+06   -57.466172E+06       158.291916   344.827072E+06       708.475220
               84   114.946392E+06   -57.466772E+06    -57.46546E+06      -116.977425   344.827392E+06       408.655731
               85   114.943304E+06    -57.47058E+06   -57.469732E+06       206.891937   344.827552E+06      -186.680725
               86   114.941912E+06   -57.471672E+06    -57.47158E+06       67.8744125   344.827776E+06      -24.0198326
               87   114.940024E+06   -57.473496E+06   -57.473812E+06       17.7345734   344.827904E+06      -380.582367
               88   114.942728E+06     -57.4714E+06   -57.470984E+06      -283.407410   344.827904E+06      -209.854950
               89    114.94284E+06   -57.471524E+06     -57.4714E+06       329.289673   344.827872E+06       208.353943
               90    114.94384E+06   -57.468812E+06   -57.469392E+06       115.228348    344.82752E+06       96.9095383
               91   114.942768E+06   -57.471824E+06   -57.472392E+06       316.871460   344.827328E+06       288.345886
               92   114.942536E+06   -57.471372E+06   -57.471208E+06       29.0032063   344.827776E+06       18.5373154
               93    114.94348E+06   -57.470788E+06   -57.470484E+06      -52.7326736    344.82784E+06      -59.4629593
               94   114.943752E+06   -57.471452E+06   -57.470568E+06       179.415558   344.828256E+06       15.2674398
               95   114.944608E+06   -57.469436E+06   -57.469236E+06      -164.444366    344.82736E+06       71.4638290
               96   114.937864E+06   -57.478044E+06   -57.478376E+06       572.330017   344.828608E+06       754.922119
               97     114.9426E+06   -57.472124E+06    -57.47166E+06       136.836823   344.827744E+06       149.970886
               98   114.943304E+06    -57.47106E+06   -57.471624E+06      -86.2953491   344.827744E+06      -43.7808228
               99   114.943416E+06     -57.4705E+06   -57.470444E+06      -225.667358   344.827072E+06       52.3814163
              100   114.943008E+06   -57.470676E+06   -57.470168E+06       59.5027046   344.827648E+06       11.8580675
              101   114.943336E+06   -57.470932E+06   -57.470804E+06      -269.566925   344.827712E+06      -167.028122
              102   114.943192E+06   -57.470284E+06    -57.47024E+06       203.982117   344.827584E+06       59.4973869
              103   114.942872E+06   -57.470504E+06   -57.470844E+06       105.370789    344.82768E+06      -80.3510513
              104   114.942928E+06   -57.470884E+06   -57.470736E+06      -25.9154377   344.827744E+06      -34.7614899
              105   114.942408E+06   -57.471452E+06   -57.471228E+06      -56.1835098    344.82768E+06       27.6421986
              106   114.966736E+06    -57.45232E+06   -57.452196E+06       473.568665   344.826592E+06       377.110443
              107   114.942704E+06   -57.471188E+06   -57.470916E+06      -32.0461769    344.82784E+06       53.2991371
              108   114.942376E+06   -57.471508E+06   -57.471304E+06      -74.9164810   344.827744E+06      -3.73578167
              109    114.94264E+06     -57.4712E+06   -57.471024E+06      -26.2676544   344.827744E+06      -24.0677624
              110   114.939544E+06     -57.4743E+06   -57.473992E+06       167.650101   344.828192E+06      -124.991043
              111    114.94248E+06   -57.471424E+06   -57.471168E+06      -17.4006844   344.827872E+06       54.2771797
              112   114.943232E+06    -57.47086E+06    -57.47048E+06       63.3048897   344.827936E+06      -83.7901840
              113   114.941672E+06   -57.472244E+06   -57.472236E+06       32.7434540   344.828096E+06       405.109314
              114   114.935424E+06   -57.478176E+06    -57.47844E+06   3.07962695E+03   344.827328E+06       428.594025
              115   114.943168E+06   -57.470772E+06    -57.47054E+06      -13.2925644   344.827712E+06       47.9467583
              116    114.94264E+06   -57.471096E+06   -57.470928E+06      -21.1407719   344.827712E+06       36.7242126
              117   114.941752E+06   -57.472528E+06   -57.472888E+06      -175.435867    344.82784E+06      -275.471191
              118   114.943736E+06   -57.470628E+06   -57.470332E+06      -89.3242798   344.827904E+06      -48.3955574
              119   114.944088E+06   -57.469956E+06   -57.470532E+06      -420.650085   344.827552E+06      -182.548706
              120   114.942408E+06   -57.471436E+06   -57.471468E+06      -128.801315   344.827392E+06      -80.3315201
              121   114.942328E+06   -57.471312E+06   -57.470944E+06      -6.12275600   344.827744E+06       42.7170639
              122   114.942504E+06   -57.470988E+06   -57.470856E+06      -91.2521744   344.827616E+06      -97.4866486
              123   114.942968E+06   -57.470436E+06    -57.47042E+06       97.4336929   344.827936E+06       5.22357702
              124   114.942264E+06   -57.471324E+06   -57.470732E+06      -1.34059799   344.827616E+06       10.3378353
              125   114.942936E+06     -57.4709E+06   -57.470492E+06      -10.8777380   344.827648E+06      -100.226036
              126   114.942672E+06   -57.471188E+06    -57.47106E+06       132.580658   344.828096E+06      -23.8281231
              127   114.942216E+06   -57.471408E+06   -57.471204E+06       80.7173004      344.828E+06      -32.1509171
              128   114.943048E+06   -57.470696E+06   -57.470324E+06      -5.73066854   344.827968E+06      -181.893219
              129   114.941928E+06   -57.471912E+06   -57.471676E+06      -26.8862095   344.827904E+06      -133.143127
              130     114.9428E+06   -57.470924E+06   -57.470676E+06      -74.9360886   344.827648E+06      -107.393684
              131   114.943088E+06   -57.470856E+06   -57.470652E+06      -12.7390776   344.827904E+06      -26.3875408
              132   114.942632E+06   -57.471324E+06   -57.471148E+06      -33.2752113   344.827968E+06      -1.00782943
              133   114.941912E+06    -57.47196E+06   -57.471716E+06      -43.1566849   344.827776E+06      -4.79003477
              134      114.943E+06   -57.470728E+06   -57.470136E+06       111.647591   344.827584E+06       51.6920776
              135   114.942528E+06   -57.471432E+06    -57.47104E+06      -20.6523495   344.827904E+06      -43.6623764
              136   114.943472E+06   -57.470636E+06   -57.469968E+06       5.29883432      344.828E+06      -21.1593285
              137   114.925832E+06    -57.48322E+06   -57.483024E+06   1.61306116E+03   344.826752E+06      -173.113464
              138   114.942296E+06   -57.471616E+06   -57.471164E+06       8.15826511   344.828032E+06      -258.764526
              139   114.942944E+06   -57.470676E+06   -57.470464E+06       8.68005180   344.827776E+06       30.5283566
              140   114.943368E+06   -57.471464E+06   -57.471908E+06   2.47742969E+03   344.831392E+06  -1.14771606E+03
              141    114.94256E+06   -57.471292E+06    -57.47134E+06       128.399002   344.828128E+06       22.3310795
              142   114.942984E+06   -57.470988E+06   -57.470828E+06      -23.4380760   344.827904E+06       96.4169998
              143    114.94272E+06   -57.471036E+06   -57.470708E+06      -24.5416660   344.827936E+06       103.482887
              144     114.9428E+06   -57.470824E+06   -57.470564E+06      -1.74489987    344.82784E+06       59.2685051
              145   114.943208E+06    -57.47062E+06   -57.470104E+06      -25.6177082   344.827776E+06      -160.794067
              146   114.942336E+06    -57.47136E+06    -57.47106E+06       21.3630161   344.828064E+06      -190.945847
              147   114.943456E+06   -57.470532E+06    -57.47094E+06      -612.591858    344.82752E+06       60.4528160
              148    114.94264E+06   -57.470728E+06    -57.47052E+06       55.9691124    344.82784E+06      -227.150421
              149    114.94164E+06   -57.472396E+06   -57.472564E+06      -179.026077   344.827424E+06       170.328583
              150   114.942328E+06   -57.471384E+06   -57.471288E+06       17.4231567   344.827872E+06       166.688110
              151   114.942064E+06   -57.471648E+06   -57.471288E+06      -103.461746   344.827776E+06       163.109192
              152   114.942072E+06   -57.471396E+06   -57.470976E+06      -3.73544741   344.827776E+06       44.3576393
              153   114.941296E+06   -57.472636E+06   -57.472284E+06       47.9861641   344.827872E+06       133.736069
              154   114.942872E+06   -57.470804E+06   -57.470488E+06       45.1978111   344.827744E+06       70.3355179
              155   114.941992E+06    -57.47136E+06   -57.471116E+06      -120.689835    344.82768E+06       145.895157
              156   114.942328E+06   -57.471416E+06    -57.47102E+06      -13.5143681   344.827936E+06       114.695938
              157   114.944904E+06   -57.468232E+06   -57.468868E+06      -112.482285   344.827904E+06      -24.3132896
              158   114.942952E+06   -57.470624E+06   -57.470176E+06       54.8362541   344.827936E+06       291.198395
              159   114.942352E+06    -57.47188E+06   -57.471728E+06      -40.5357666   344.827744E+06      -143.421783
              160   114.942152E+06   -57.471408E+06   -57.471436E+06      -74.0203705   344.827584E+06      -280.287109
              161   114.943216E+06    -57.47058E+06   -57.470328E+06       2.54414916   344.827648E+06      -39.7131729
              162    114.94272E+06    -57.47134E+06   -57.471116E+06       28.0234451   344.827872E+06      -92.1224823
              163   114.943344E+06   -57.470416E+06   -57.470416E+06      -14.2535734   344.827808E+06      -66.1279068
              164   114.942232E+06   -57.471648E+06     -57.4715E+06       47.6735039   344.827776E+06      -41.2835960
              165   114.942584E+06   -57.470956E+06   -57.470816E+06      -10.4400949    344.82768E+06       15.7157698
              166   114.942688E+06   -57.471208E+06   -57.471252E+06       22.6596012   344.827904E+06      -133.814117
              167    114.94224E+06    -57.47158E+06   -57.471244E+06      -136.858505   344.827616E+06      -139.861603
              168   114.942504E+06   -57.471184E+06   -57.470824E+06       7.90559053   344.827744E+06       50.5400238
              169   114.942752E+06   -57.471196E+06   -57.471128E+06      -51.2702713   344.827904E+06      -180.348145
              170    114.94324E+06   -57.470664E+06   -57.470372E+06       27.1419373   344.827872E+06       10.0383205
              171   114.943064E+06   -57.471012E+06   -57.470944E+06  -8.61424021E-03   344.827712E+06      -71.4743500
              172   114.942664E+06   -57.471168E+06   -57.470964E+06      -27.6217861    344.82784E+06       61.6054459
              173   114.942664E+06   -57.471568E+06   -57.471152E+06      -29.5041218   344.827968E+06       88.0315628
              174   114.942168E+06    -57.47158E+06   -57.471256E+06      -39.4548264   344.827904E+06       34.8606262
              175   114.942648E+06   -57.470916E+06   -57.470696E+06      -41.3928070   344.827648E+06      -54.8851891
              176   114.942312E+06    -57.47116E+06   -57.470684E+06      -125.288071   344.827744E+06      -69.8004150
              177   114.941648E+06   -57.471752E+06   -57.471676E+06      -103.466003   344.827776E+06      -18.0118103
              178   114.943248E+06   -57.470352E+06   -57.469824E+06       89.7625122   344.827936E+06       252.206802
              179   114.942696E+06   -57.471072E+06   -57.470728E+06      -3.38531780    344.82784E+06       7.55927420
              180   114.942576E+06   -57.471172E+06   -57.470836E+06      -58.5182648   344.827936E+06       97.1296005
              181   114.942848E+06   -57.470712E+06   -57.470508E+06      -78.1388550   344.827584E+06      -135.158249
              182   114.943944E+06   -57.469684E+06   -57.469204E+06      -10.2219563   344.827872E+06       235.739044
              183    114.94164E+06   -57.472416E+06   -57.472332E+06      -86.1784821   344.827872E+06      -71.3269730
              184   114.942608E+06    -57.47076E+06   -57.470784E+06      -107.312317   344.828128E+06       339.005005
              185   114.941608E+06   -57.471836E+06    -57.47168E+06      -112.620216   344.827776E+06      -8.80893421
              186   114.942768E+06   -57.470988E+06   -57.470868E+06      -42.8504524    344.82768E+06      -10.4877529
              187   114.943424E+06   -57.470276E+06   -57.470128E+06      -140.872803   344.827552E+06       56.4103813
              188   114.942584E+06   -57.471144E+06   -57.470912E+06      -15.7274704   344.827808E+06       90.7838440
              189   114.942544E+06    -57.47116E+06   -57.470824E+06      -13.1656675   344.827904E+06       111.145508
              190   114.944944E+06   -57.469356E+06   -57.469348E+06      -98.4978333   344.827616E+06      -130.233444
              191   114.941696E+06   -57.471568E+06   -57.471636E+06       156.162598   344.828224E+06       10.5188284
              192   114.942048E+06    -57.47148E+06    -57.47172E+06      -40.1410713   344.827392E+06      -37.2997665
              193   114.943416E+06    -57.47004E+06   -57.469804E+06       17.8131371    344.82784E+06       4.10720539
              194     114.9428E+06   -57.471128E+06   -57.470872E+06       35.5872650   344.827904E+06       66.2789764
              195   114.942152E+06   -57.471384E+06    -57.47094E+06      -7.07857847    344.82784E+06      -180.312775
              196   114.941736E+06     -57.4721E+06   -57.472276E+06       91.5920105    344.82768E+06       107.561485
              197   114.942296E+06    -57.47142E+06   -57.470916E+06      -87.2468262   344.827904E+06      -168.709930
              198   114.942648E+06   -57.471268E+06   -57.471376E+06      -43.7892036   344.827808E+06       17.6171589
              199   114.937088E+06   -57.472836E+06   -57.472372E+06  -1.24087598E+03   344.829728E+06       927.469910
              200   114.949032E+06   -57.466148E+06   -57.466272E+06  -1.20723804E+03   344.827776E+06      -318.742859
              201   114.943608E+06    -57.47364E+06   -57.472892E+06      -65.1825867   344.827488E+06      -900.719604
              202   114.940024E+06   -57.473732E+06   -57.473524E+06       306.096436   344.828448E+06       135.753006
              203   114.943568E+06   -57.470244E+06   -57.469992E+06      -43.3193855   344.827872E+06      -110.670052
              204     114.9426E+06   -57.471268E+06   -57.471368E+06      -5.92943907   344.827808E+06      -99.2765274
              205     114.9422E+06   -57.471516E+06   -57.472236E+06      -31.9006596   344.827584E+06       77.5663452
              206   114.942496E+06   -57.471372E+06   -57.471448E+06       197.828293   344.827648E+06       74.0844498
              207   114.941024E+06    -57.47284E+06   -57.472424E+06      -195.386292   344.828256E+06      -18.3060436
              208    114.94284E+06   -57.471112E+06   -57.470672E+06       34.9180183   344.827872E+06       63.8269272
              209   114.943328E+06   -57.470664E+06   -57.470276E+06      -70.3559418   344.827968E+06      -64.2094498
              210   114.940568E+06   -57.471632E+06    -57.47194E+06      -114.313362   344.827616E+06      -191.354553
              211   114.943536E+06    -57.47014E+06   -57.470676E+06       87.7761154   344.827584E+06       72.4340134
              212   114.942896E+06   -57.470976E+06   -57.471464E+06       49.1076508   344.827776E+06      -119.607498
              213   114.940968E+06   -57.472708E+06   -57.472344E+06       565.453186    344.82784E+06      -224.388016
              214   114.941344E+06   -57.472452E+06    -57.47242E+06       221.390045   344.828096E+06      -16.5565357
              215      114.943E+06   -57.470912E+06   -57.470808E+06       38.0337868    344.82784E+06      -1.35248065
              216   114.939944E+06    -57.47426E+06   -57.474788E+06       70.2325668   344.828416E+06      -207.219131
              217   114.944048E+06    -57.46986E+06   -57.469852E+06       12.3635521   344.827552E+06      -75.4426651
              218   114.945608E+06   -57.467968E+06   -57.468456E+06      -297.818848   344.827872E+06       138.749405
              219   114.943336E+06   -57.470184E+06   -57.470704E+06      -45.3177681   344.827264E+06       293.559174
              220   114.944976E+06    -57.46926E+06   -57.469356E+06      -199.428192   344.828192E+06       4.70974827
              221    114.94348E+06    -57.47018E+06   -57.470108E+06      -125.873505   344.827648E+06       166.714767
              222   114.944856E+06   -57.468988E+06   -57.469176E+06      -384.704712   344.827744E+06      -1.91893041
              223   114.942536E+06   -57.471364E+06   -57.471124E+06       68.1663818   344.827936E+06      -72.6696472
              224   114.942744E+06   -57.471032E+06     -57.4708E+06      -14.2919760   344.827712E+06       61.4209900
              225   114.943736E+06   -57.470264E+06   -57.469996E+06      -222.968811   344.827776E+06       66.3474960
              226   114.943272E+06   -57.470288E+06    -57.47062E+06       235.267761   344.827808E+06      -166.511017
              227   114.943456E+06    -57.47018E+06   -57.470004E+06      -180.435440   344.827616E+06      -174.019928
              228   114.943744E+06   -57.469976E+06   -57.469908E+06       138.690323   344.827872E+06      -131.012115
              229   114.944464E+06   -57.469652E+06   -57.469844E+06      -68.1170044   344.827744E+06       118.206230
              230   114.943456E+06   -57.470536E+06   -57.470352E+06       77.2911224   344.827872E+06       161.395187
              231    114.94268E+06    -57.47122E+06   -57.471004E+06       30.5296745      344.828E+06       197.013046
              232   114.942328E+06   -57.471572E+06   -57.472156E+06       8.44228554    344.82784E+06       271.501312
              233   114.942232E+06    -57.47194E+06   -57.471828E+06       126.492195   344.827936E+06       354.962524
              234   114.943992E+06   -57.469368E+06    -57.46996E+06       445.261963   344.826912E+06      -29.5451736
              235   114.942224E+06   -57.469484E+06   -57.470528E+06      -406.524841   344.827552E+06      -550.739136
              236   114.943576E+06   -57.471764E+06   -57.471084E+06  -1.38385645E+03   344.828768E+06  -1.06627576E+03
              237   114.945112E+06   -57.468988E+06    -57.46748E+06  -1.11952917E+03   344.828064E+06  -1.31015515E+03
              238   114.943248E+06   -57.471572E+06   -57.471432E+06      -38.6643181    344.82848E+06       8.09883785
              239   114.949472E+06   -57.464728E+06    -57.46416E+06  -2.09443848E+03    344.82784E+06      -435.757324
              240   114.938176E+06    -57.47526E+06   -57.477956E+06  -1.38441260E+03   344.827264E+06   1.05963013E+03
              241   114.944904E+06   -57.467708E+06   -57.468496E+06      -16.1497555   344.828128E+06       20.5928020
              242   114.943944E+06   -57.469728E+06   -57.468528E+06      -166.858093   344.827776E+06      -14.9309912
              243   114.942168E+06   -57.470984E+06    -57.47016E+06      -411.132935   344.827744E+06      -391.933929
              244   114.942552E+06   -57.471544E+06   -57.471448E+06       119.118538   344.828128E+06      -191.692963
              245    114.94356E+06   -57.470456E+06   -57.470084E+06       89.2192688   344.827712E+06      -11.3709555
              246   114.940928E+06   -57.472608E+06   -57.472364E+06       170.290619   344.827424E+06       219.778091
              247   114.944832E+06   -57.468764E+06   -57.468124E+06      -51.7421112    344.82752E+06      -247.170334
              248     114.9422E+06   -57.471092E+06   -57.470296E+06       308.242432   344.827456E+06       6.05458975
              249   114.942168E+06   -57.471484E+06   -57.471204E+06      -15.3721704   344.827936E+06      -160.716293
              250   114.946024E+06    -57.46736E+06   -57.466164E+06      -388.462067   344.827392E+06       113.822388
              251   114.941032E+06   -57.468024E+06    -57.46874E+06   1.30788110E+03   344.827104E+06       106.990356
              252   114.939584E+06   -57.472828E+06   -57.473904E+06      -59.3803940     344.8272E+06       395.001221
              253   114.930048E+06   -57.482256E+06   -57.481792E+06      -53.2647400    344.82832E+06       680.227783
              254   114.925352E+06   -57.482104E+06   -57.482544E+06       479.395081   344.828704E+06       167.272827
              255    114.93456E+06   -57.474664E+06   -57.475312E+06   1.04274194E+03    344.82576E+06      -55.6292725
              256   114.942216E+06    -57.47144E+06   -57.471544E+06       207.529510   344.828192E+06      -303.737640
              257   114.945488E+06   -57.466172E+06   -57.467768E+06       323.960175   344.826464E+06       54.4900932
              258   114.941088E+06   -57.471448E+06     -57.4716E+06      -691.677795      344.828E+06       376.930664
              259    114.94316E+06   -57.470588E+06   -57.470644E+06       60.9713860   344.828192E+06      -51.7980042
              260   114.940592E+06   -57.473276E+06    -57.47312E+06       246.768158   344.828416E+06      -148.333511
              261   114.943776E+06   -57.470212E+06   -57.470244E+06      -85.5959396    344.82752E+06       118.523926
              262   114.942272E+06    -57.47138E+06   -57.471108E+06      -470.049744   344.827904E+06      -25.6010361
              263   114.943984E+06   -57.471948E+06   -57.471244E+06   1.26384924E+03   344.826944E+06       19.2900887
              264     114.9436E+06   -57.470944E+06   -57.470512E+06       30.0579834   344.827872E+06      -113.587799
              265     114.9428E+06    -57.47092E+06    -57.47078E+06      -38.5298615    344.82768E+06      -12.1600161
              266   114.946256E+06   -57.467912E+06    -57.46842E+06      -52.6698532   344.826592E+06       110.656067
              267   114.947456E+06   -57.465444E+06   -57.464864E+06   1.11497900E+03   344.827424E+06      -424.688538
              268   114.945064E+06   -57.468376E+06   -57.469104E+06   1.16870178E+03   344.827072E+06      -215.569412
              269   114.944208E+06   -57.468744E+06   -57.469436E+06      -144.529526   344.827552E+06       219.545181
              270   114.946744E+06   -57.466872E+06   -57.467264E+06       491.980804   344.827104E+06       264.195313
              271   114.940712E+06   -57.473112E+06   -57.473064E+06       40.4222069    344.82816E+06       31.9980259
              272    114.94188E+06     -57.4718E+06   -57.472164E+06      -96.5475159   344.827808E+06       235.888702
              273   114.941936E+06   -57.471908E+06     -57.4718E+06       88.2799225   344.827904E+06       54.1195679
              274    114.94376E+06   -57.470532E+06   -57.470912E+06       103.008408   344.827776E+06       87.5539398
              275   114.946088E+06   -57.470128E+06   -57.468972E+06      -386.563477   344.828416E+06       376.583984
              276   114.940088E+06     -57.4743E+06   -57.475256E+06   2.41803906E+03    344.82976E+06       372.372498
              277      114.931E+06   -57.482056E+06   -57.482244E+06   1.69260840E+03   344.830496E+06      -224.756989
              278   114.937248E+06   -57.477452E+06   -57.477344E+06   2.57640869E+03   344.830368E+06       89.1974792
              279    114.94312E+06   -57.466116E+06    -57.46604E+06      -77.9918365   344.826656E+06       730.042786
              280    114.93164E+06   -57.478544E+06   -57.478356E+06       965.122192   344.828416E+06       30.4804897
              281   114.942992E+06    -57.47282E+06   -57.472712E+06   3.18526685E+03    344.83024E+06      -420.988281
              282    114.96048E+06   -57.456936E+06   -57.456996E+06   2.15971899E+03   344.825952E+06       959.648010
              283   114.938424E+06   -57.478988E+06   -57.478568E+06   3.06251025E+03   344.831008E+06       341.006134
              284   114.924768E+06    -57.48416E+06   -57.483884E+06  -3.86608911E+03   344.828864E+06       434.444672
              285   114.932616E+06   -57.475192E+06   -57.475908E+06      -621.161194   344.825824E+06       682.980225
              286    114.93172E+06   -57.480312E+06   -57.480608E+06      -601.617188   344.829664E+06       90.7000504
              287    114.92264E+06    -57.49064E+06    -57.48952E+06   3.45695996E+03   344.831008E+06       611.563660
              288   114.946608E+06    -57.46708E+06    -57.46692E+06      -71.8798065   344.825408E+06       764.695435
              289   114.943672E+06   -57.470488E+06   -57.471624E+06      -717.722534   344.827392E+06      -266.729431
              290   114.894008E+06    -57.50408E+06   -57.506688E+06      -571.279785   344.824384E+06       674.718567
              291   114.950504E+06    -57.46294E+06   -57.462308E+06       106.477371   344.825568E+06       282.142639
              292   114.943528E+06    -57.47008E+06   -57.470336E+06       36.4294319   344.828064E+06      -233.508194
              293     114.9156E+06   -57.490568E+06   -57.490556E+06       885.636597   344.826048E+06      -526.754517
              294   114.941992E+06   -57.472328E+06   -57.472428E+06       23.0586300   344.828032E+06       3.97672701
              295    114.94232E+06    -57.47156E+06    -57.47132E+06      -70.7890472    344.82816E+06      -116.794594
              296   114.942448E+06   -57.471236E+06   -57.470788E+06      -10.5789614   344.828096E+06      -146.769302
              297   114.938136E+06   -57.474796E+06   -57.474676E+06       79.3581924   344.828128E+06      -188.690643
              298    114.94364E+06   -57.470332E+06   -57.470504E+06       23.8112183   344.827904E+06      -185.543396
              299   114.950656E+06    -57.46286E+06   -57.463704E+06  -1.17020959E+03   344.825792E+06      -438.391937
              300   114.946176E+06    -57.46894E+06   -57.468424E+06       147.382233   344.827584E+06      -128.500214
              301   114.943688E+06   -57.470236E+06   -57.470316E+06      -232.723145   344.828032E+06      -88.6472092
              302   114.942352E+06    -57.47202E+06   -57.471592E+06      -98.0947342    344.82832E+06      -240.675156
              303   114.942784E+06    -57.47188E+06   -57.471696E+06      -455.998444   344.828224E+06       112.518219
              304    114.94488E+06    -57.46972E+06   -57.469908E+06      -70.7694016    344.82816E+06       407.511200
              305   114.941696E+06   -57.472324E+06   -57.472124E+06      -153.571228   344.827776E+06      -86.8078766
              306   114.944384E+06   -57.467804E+06   -57.467716E+06       283.697998   344.826272E+06       149.731369
              307   114.953904E+06   -57.464864E+06   -57.463504E+06      -9.75307560   344.829088E+06       84.8315353
              308   114.953208E+06   -57.459908E+06    -57.45988E+06      -706.751526   344.822112E+06      -183.079407
              309   114.953608E+06   -57.460412E+06   -57.457404E+06  -1.30784204E+03    344.82784E+06  -1.39744678E+03
              310   114.903856E+06   -57.502448E+06   -57.503212E+06   7.70288135E+03   344.828512E+06       144.563095
              311   114.946872E+06   -57.468808E+06   -57.466624E+06   1.92183215E+03   344.825824E+06      -263.719727
              312      114.941E+06   -57.473588E+06     -57.4743E+06      -906.697266    344.82848E+06       208.171127
              313    114.95516E+06   -57.465996E+06     -57.4646E+06      -670.693359   344.828928E+06       590.221558
              314   114.941752E+06   -57.472948E+06   -57.474036E+06      -38.4202766   344.827808E+06      -368.829834
              315   114.943272E+06     -57.4711E+06   -57.471288E+06       263.906128   344.828256E+06       354.257538
              316   114.944656E+06   -57.469944E+06    -57.47048E+06       183.296890   344.827904E+06      -81.4032974
              317   114.941912E+06   -57.472468E+06   -57.472816E+06       174.117752   344.828224E+06       230.539902
              318   114.945328E+06   -57.469188E+06    -57.46962E+06       251.856888    344.82784E+06       83.7480469
              319   114.943128E+06   -57.470944E+06   -57.470696E+06       29.7778988   344.827904E+06       94.8091125
              320   114.943544E+06   -57.470708E+06   -57.470556E+06       52.2937469   344.827968E+06       103.986900
              321    114.94256E+06    -57.47144E+06    -57.47116E+06      -5.14370441   344.827808E+06       38.8335457
              322   114.943056E+06   -57.471308E+06   -57.470832E+06      -114.702362   344.828064E+06      -74.5273361
              323    114.96068E+06    -57.45992E+06   -57.459828E+06  -2.47613306E+03   344.828224E+06  -1.19770081E+03
              324   114.957608E+06   -57.454656E+06   -57.454328E+06   4.20335840E+03   344.825152E+06       38.0942459
              325   114.921752E+06   -57.486124E+06   -57.485364E+06   3.66730933E+03    344.82944E+06       346.094482
              326    114.94876E+06   -57.469512E+06   -57.468876E+06       93.1752014   344.827232E+06      -952.371521
              327     114.9672E+06   -57.454852E+06   -57.453232E+06      -588.790771   344.828544E+06       191.435028
              328   114.943024E+06   -57.470824E+06   -57.470604E+06      -146.360107   344.827744E+06      -211.750259
              329   114.943088E+06   -57.470976E+06   -57.470808E+06      -34.0983582   344.827872E+06      -106.023163
              330   114.943536E+06   -57.470372E+06   -57.470352E+06       40.6445160   344.827776E+06      -101.255623
              331    114.94288E+06   -57.471136E+06   -57.471272E+06       83.6356049   344.827936E+06      -26.4984932
              332    114.94252E+06    -57.47146E+06    -57.47126E+06       26.7380810   344.827872E+06      -96.0695038
              333    114.94312E+06    -57.47068E+06   -57.470664E+06       28.7996235   344.827744E+06       3.63505340
              334   114.942792E+06   -57.470964E+06   -57.470904E+06       40.0485382   344.827872E+06      -79.4916458
              335   114.944912E+06   -57.467592E+06     -57.4682E+06      -122.865784   344.828352E+06      -651.382202
              336   114.944536E+06   -57.469376E+06   -57.468448E+06      -59.0111504    344.82768E+06       33.5254402
              337   114.942288E+06   -57.471196E+06   -57.471164E+06       205.965118   344.827904E+06      -226.443878
              338   114.942536E+06   -57.470224E+06   -57.469716E+06       414.785706   344.827488E+06      -568.450195
              339   114.944968E+06    -57.46778E+06   -57.468496E+06      -2.31170511   344.827616E+06      -41.6656494
              340   114.945576E+06   -57.467612E+06   -57.467844E+06      -407.277405   344.827296E+06      -87.7327805
              341   114.950568E+06   -57.461484E+06   -57.461684E+06  -2.83618091E+03    344.82736E+06      -360.890289
              342    114.94344E+06   -57.470456E+06   -57.469428E+06       62.4384308   344.828064E+06       68.9545593
              343   114.939448E+06   -57.475188E+06   -57.474648E+06       59.3452797   344.828224E+06      -63.3522568
              344   114.943824E+06   -57.470088E+06   -57.470256E+06   1.09143787E+03   344.827616E+06       184.699738
              345   114.946272E+06   -57.468076E+06   -57.467912E+06       411.946930   344.826688E+06       40.0332794
              346   114.940032E+06   -57.473016E+06   -57.471832E+06       129.180450    344.82832E+06       203.604279
              347   114.941048E+06   -57.471712E+06    -57.47112E+06      -55.5273438   344.828128E+06       472.946747
              348   114.940456E+06   -57.473104E+06   -57.472496E+06       15.3800135   344.827744E+06      -287.447784
              349   114.942808E+06    -57.47076E+06   -57.470712E+06      -90.8662643   344.828096E+06       284.301788
              350   114.955224E+06   -57.460548E+06   -57.461584E+06  -1.75430591E+03   344.828192E+06      -982.974854
              351   114.944184E+06   -57.469268E+06   -57.469992E+06      -670.572632   344.826944E+06      -222.850815
              352   114.943064E+06   -57.470424E+06   -57.470132E+06      -53.7671280   344.828064E+06      -66.3711243
              353   114.943912E+06   -57.469476E+06   -57.469036E+06      -233.994308   344.827936E+06      -473.593567
              354   114.942064E+06    -57.47124E+06   -57.471124E+06      -86.8987656   344.827744E+06      -73.8940735
              355   114.943304E+06   -57.470744E+06   -57.470468E+06       71.0584717   344.827936E+06      -71.3990402
              356   114.948976E+06   -57.463756E+06   -57.464316E+06      -283.211639   344.826432E+06      -318.387604
              357   114.942656E+06   -57.471196E+06   -57.470764E+06      -136.693359      344.828E+06      -227.960571
              358    114.94372E+06   -57.468296E+06   -57.467676E+06   6.78883252E+03   344.825664E+06       561.661255
              359   114.942584E+06    -57.47082E+06    -57.47054E+06      -77.1895370   344.827584E+06      -45.0775528
              360   114.985976E+06   -57.439776E+06   -57.443792E+06   6.65283252E+03   344.826272E+06       130.996933
              361   114.940168E+06   -57.474804E+06   -57.476476E+06  -1.05407678E+03   344.829152E+06       1.50371993
              362   114.929592E+06   -57.479984E+06   -57.480472E+06  -1.47639795E+03   344.825376E+06  -1.96530359E+03
              363   114.941576E+06   -57.472364E+06    -57.47222E+06      -622.334290   344.828032E+06       114.886017
              364   114.949832E+06   -57.466328E+06   -57.465476E+06      -917.266541   344.827072E+06       83.8187103
              365    114.94512E+06   -57.469408E+06   -57.470084E+06      -440.114075   344.827744E+06       40.0874748
              366   114.943848E+06     -57.4708E+06   -57.470544E+06      -157.314407    344.82752E+06      -497.127686
              367    114.94272E+06   -57.471204E+06    -57.47096E+06      -424.811340   344.827904E+06      -372.306946
              368   114.961112E+06   -57.456928E+06   -57.453164E+06   2.79485742E+03   344.829376E+06      -883.272949
              369     114.9438E+06   -57.470208E+06   -57.470156E+06      -348.302673   344.827104E+06      -247.433945
              370    114.94084E+06   -57.473944E+06   -57.474556E+06      -387.235870   344.828032E+06      -381.883148
              371   114.933192E+06   -57.477676E+06   -57.476524E+06  -1.23436548E+03   344.828192E+06      -228.449692
              372   114.937816E+06   -57.468996E+06   -57.470292E+06       825.707458   344.827232E+06      -217.969177
              373   114.910016E+06   -57.498064E+06     -57.4984E+06   4.30783936E+03   344.833184E+06      -316.729492
              374    114.94136E+06    -57.46862E+06   -57.468824E+06      -173.914932   344.826304E+06      -720.486511
              375   114.940072E+06   -57.475268E+06   -57.475192E+06       617.514038   344.829888E+06   1.39111011E+03
              376     114.9426E+06   -57.471248E+06   -57.471288E+06       56.1142960   344.827968E+06       98.5103989
              377   114.941552E+06   -57.472304E+06   -57.472376E+06      -12.3994732   344.828128E+06      -25.0679760
              378   114.943176E+06    -57.47096E+06   -57.470928E+06       33.1341934   344.827872E+06       70.7801208
              379   114.942976E+06   -57.470716E+06    -57.47086E+06      -11.1269398   344.827936E+06       64.6352997
              380   114.942264E+06    -57.47188E+06   -57.471804E+06       92.1255035   344.828032E+06      -11.0294867
              381    114.94328E+06   -57.470788E+06   -57.470512E+06       28.2736988   344.827904E+06       86.9978180
              382   114.943144E+06   -57.470944E+06   -57.470688E+06       24.2179947   344.827936E+06       78.1272507
              383    114.94804E+06   -57.466472E+06   -57.467696E+06      -641.865295   344.827136E+06      -980.999695
              384   114.932568E+06    -57.47836E+06    -57.48048E+06      -526.046997   344.826432E+06  -1.00468353E+03
              385   114.948048E+06    -57.46682E+06   -57.468104E+06       226.308304   344.827552E+06  -1.01331323E+03
              386   114.942616E+06   -57.473492E+06   -57.473696E+06   1.39434668E+03   344.828448E+06       58.0175476
              387   114.928544E+06   -57.481372E+06   -57.483388E+06      -413.703156   344.827296E+06      -608.602539
              388    114.94216E+06     -57.4718E+06   -57.471508E+06      -360.904785   344.827904E+06       270.680115
              389   114.940496E+06   -57.474948E+06   -57.473656E+06       124.559349   344.827808E+06       715.312439
              390   114.944728E+06   -57.469348E+06   -57.469172E+06      -286.447479    344.82784E+06      -123.817276
              391   114.940632E+06   -57.473524E+06   -57.472612E+06       590.802490   344.827488E+06       398.355469
              392   114.946496E+06     -57.4658E+06   -57.466016E+06      -692.495789   344.827488E+06   1.45199658E+03
              393    114.94356E+06   -57.470668E+06   -57.470512E+06       187.269485    344.82768E+06       97.6006317
              394   114.942568E+06   -57.471292E+06   -57.471108E+06      -270.019104   344.827744E+06      -139.308624
              395   114.941968E+06    -57.47182E+06   -57.471868E+06      -36.7271042   344.828192E+06      -135.475449
              396   114.944032E+06    -57.46984E+06   -57.470256E+06       87.0458069   344.827808E+06       92.7423401
              397   114.941824E+06   -57.472772E+06   -57.472688E+06      -167.598877      344.828E+06       462.181000
              398   114.943168E+06   -57.470992E+06   -57.471176E+06      -39.8981857   344.827904E+06       49.9933319
              399    114.87788E+06   -57.526692E+06   -57.527204E+06  -1.21213000E+03    344.83616E+06      -828.053101
              400   114.941576E+06    -57.47026E+06   -57.471264E+06       259.604401   344.825824E+06   1.12349316E+03
              401    114.94396E+06    -57.47036E+06   -57.470208E+06      -226.845596   344.828384E+06       12.0336027
              402   114.943672E+06   -57.470208E+06   -57.469464E+06      -102.895699   344.827872E+06      -201.657318
              403    114.94228E+06   -57.471496E+06   -57.471128E+06   620.648205E-03   344.828032E+06      -242.423615
              404   114.943248E+06   -57.470664E+06   -57.470004E+06      -51.0839081   344.827808E+06      -98.2015915
              405   114.943624E+06    -57.47068E+06   -57.470772E+06       137.602707   344.827904E+06       140.060577
              406   114.942672E+06   -57.470708E+06   -57.471536E+06       295.050201   344.827104E+06       236.424820
              407    114.94404E+06   -57.470952E+06    -57.47054E+06       3.30908465    344.82784E+06       67.4869232
              408   114.943448E+06   -57.471144E+06   -57.470552E+06      -96.4291534      344.828E+06      -70.1491241
              409   114.943472E+06   -57.470196E+06   -57.470276E+06       319.803955    344.82784E+06       14.0341749
              410   114.943768E+06   -57.469892E+06   -57.469924E+06       219.027252   344.827744E+06       36.1059456
              411   114.943144E+06   -57.470764E+06   -57.470812E+06       89.9219742    344.82784E+06       116.621712
              412       114.94E+06   -57.473736E+06   -57.473992E+06       502.841644    344.82768E+06       335.371948
              413   114.941816E+06   -57.471784E+06   -57.471592E+06      -50.3166924   344.828192E+06       229.659653
              414   114.942216E+06   -57.471456E+06   -57.471116E+06      -21.6074905   344.828256E+06       236.578842
              415    114.94296E+06   -57.470764E+06     -57.4704E+06      -19.5383472   344.827808E+06       101.638062
              416   114.941672E+06   -57.472392E+06   -57.472256E+06      -63.7743034    344.82784E+06      -90.7130508
              417   114.941296E+06   -57.472848E+06   -57.472588E+06       367.550690   344.828064E+06      -79.2999039
              418   114.943032E+06   -57.470728E+06   -57.470292E+06       58.6410599   344.827648E+06       41.6207314
              419    114.94204E+06   -57.471688E+06    -57.47138E+06       26.7864933   344.827936E+06       166.342560
              420   114.942872E+06   -57.471052E+06   -57.471152E+06       60.9366188   344.827872E+06       136.155258
              421   114.943064E+06   -57.471056E+06   -57.471048E+06       179.778244   344.827936E+06      -28.5196190
              422   114.943224E+06    -57.47086E+06   -57.470592E+06       23.1251621   344.827936E+06       71.3385391
              423   114.942584E+06   -57.471276E+06   -57.471076E+06       50.7303696      344.828E+06       120.449829
              424     114.9424E+06   -57.471768E+06   -57.472092E+06       55.6414108   344.828096E+06       80.8744965
              425   114.943072E+06   -57.470936E+06   -57.471072E+06       56.4368362      344.828E+06       128.185440
              426    114.94388E+06   -57.470636E+06   -57.470024E+06   2.98049561E+03    344.82864E+06  -1.04579321E+03
              427   114.942632E+06   -57.471416E+06   -57.471316E+06      -146.569595      344.828E+06       81.2546768
              428    114.94148E+06   -57.472536E+06   -57.473032E+06       4.86636066   344.828288E+06       155.094223
              429   114.943456E+06   -57.470372E+06   -57.470212E+06       115.006012   344.828032E+06      -31.6210594
              430    114.94228E+06   -57.471664E+06   -57.471516E+06       160.374924   344.828352E+06      -101.962982
              431   114.935352E+06    -57.48004E+06    -57.47902E+06       113.777237   344.828672E+06       36.8091698
              432     114.9426E+06   -57.471392E+06   -57.470976E+06       40.2393684   344.828032E+06      -239.576355
              433   114.941552E+06   -57.472676E+06      -57.472E+06      -101.569618   344.828224E+06       60.1526489
              434   114.943072E+06   -57.470632E+06   -57.470508E+06      -26.8252125   344.828096E+06      -50.0405579
              435   114.942664E+06   -57.471192E+06   -57.471264E+06       74.3908615   344.827648E+06      -29.8434448
              436   114.940008E+06   -57.473416E+06   -57.473616E+06       911.355469   344.828032E+06       3.55897713
              437   114.949584E+06   -57.462648E+06    -57.46398E+06      -651.335449   344.826208E+06       875.327209
              438   114.948408E+06   -57.466228E+06   -57.467288E+06      -406.441101   344.827264E+06      -60.0138626
              439   114.944008E+06   -57.470004E+06   -57.470296E+06      -254.938873    344.82784E+06      -125.016037
              440   114.941032E+06   -57.473364E+06   -57.473572E+06      -599.393738   344.828128E+06      -353.315460
              441   114.942504E+06    -57.47172E+06   -57.471876E+06      -95.9410019   344.828032E+06       77.4623489
              442   114.942296E+06   -57.471176E+06   -57.470988E+06       46.9390030    344.82768E+06      -52.5298996
              443   114.942536E+06   -57.471004E+06   -57.470924E+06       39.4527512   344.827744E+06       11.2246065
              444   114.942728E+06   -57.470676E+06    -57.47036E+06      -316.934143    344.82704E+06      -71.3846054
              445   114.943128E+06    -57.46996E+06   -57.470204E+06      -525.189819      344.828E+06       96.1075058
              446    114.94044E+06   -57.474496E+06    -57.47486E+06      -192.194778   344.828224E+06       776.568970
              447   114.941816E+06   -57.472868E+06   -57.472956E+06      -82.9424667   344.828224E+06       974.376770
              448   114.942936E+06   -57.470848E+06   -57.470564E+06       2.65934896   344.827776E+06       184.460571
              449    114.94352E+06   -57.471152E+06   -57.470264E+06       42.5308266   344.828352E+06       503.373810
              450   114.940384E+06   -57.474532E+06   -57.473584E+06      -167.986420   344.827232E+06       326.524506
              451   114.950632E+06    -57.46356E+06   -57.463984E+06      -207.926392   344.825888E+06       338.153931
              452   114.939352E+06    -57.47498E+06   -57.473992E+06      -40.9241142   344.827328E+06       126.525223
              453   114.944752E+06   -57.470388E+06   -57.472224E+06      -31.7844257   344.827744E+06      -236.414307
              454   114.939528E+06   -57.474268E+06    -57.47576E+06      -997.754578    344.82832E+06       593.720764
              455   114.995224E+06   -57.430712E+06   -57.432164E+06   6.90938477E+03   344.826912E+06       272.297974
              456   114.940392E+06   -57.473876E+06   -57.475984E+06       532.733215   344.828576E+06      -62.3851509
              457    114.94544E+06   -57.468852E+06   -57.468032E+06       257.782043   344.827104E+06       964.752869
              458     114.9418E+06    -57.47228E+06   -57.472292E+06      -136.950485   344.828256E+06       164.456635
              459   114.942784E+06   -57.471088E+06   -57.471016E+06      -114.141365    344.82784E+06      -56.7580681
              460   114.936048E+06   -57.475932E+06   -57.478252E+06      -893.443481   344.829088E+06       183.543854
              461    114.94244E+06   -57.471384E+06   -57.471568E+06      -96.5254822   344.827936E+06      -103.533333
              462   114.941664E+06   -57.471548E+06   -57.471876E+06      -341.173737   344.827456E+06      -177.072220
              463   114.943392E+06    -57.47052E+06     -57.4706E+06      -113.407707   344.828128E+06      -42.1919365
              464   114.942824E+06   -57.471124E+06   -57.470916E+06      -148.431061   344.827872E+06      -108.358284
              465      114.943E+06   -57.470936E+06   -57.470764E+06      -86.2827301   344.827872E+06      -117.542740
              466   114.940024E+06   -57.473336E+06   -57.473136E+06      -652.403503   344.828128E+06      -67.6149979
              467   114.943152E+06   -57.470576E+06    -57.47044E+06       28.7706623   344.828032E+06      -64.8364639
              468   114.941376E+06   -57.472072E+06    -57.47202E+06       316.674194   344.828608E+06      -261.692139
              469   114.942912E+06    -57.47096E+06   -57.470988E+06       473.038208   344.828672E+06      -141.859879
              470   114.942456E+06   -57.470764E+06    -57.47118E+06       172.046921   344.827904E+06      -186.666824
              471     114.9438E+06   -57.469756E+06   -57.469752E+06       202.722382   344.828224E+06      -184.688431
              472   114.928944E+06   -57.478924E+06   -57.479024E+06   4.79055127E+03     344.8256E+06       509.580444
              473     114.9446E+06   -57.467064E+06   -57.468196E+06       752.590881   344.828032E+06       525.991943
              474    114.94212E+06   -57.471648E+06   -57.471548E+06      -48.2670631   344.827776E+06       16.2699928
              475   114.942776E+06   -57.470936E+06   -57.470912E+06      -183.601868    344.82752E+06      -322.870850
              476   114.927624E+06   -57.486112E+06     -57.4843E+06   2.21090942E+03   344.831936E+06      -39.9190140
              477   114.941904E+06   -57.471868E+06    -57.47174E+06      -250.487564   344.827968E+06      -280.215759
              478   114.942984E+06    -57.47114E+06   -57.470992E+06      -57.7819862   344.827904E+06      -171.946320
              479   114.943984E+06   -57.471032E+06   -57.470276E+06      -195.812286   344.827744E+06      -149.969742
              480   114.947288E+06   -57.467904E+06   -57.467308E+06       159.571167   344.827648E+06      -21.7824039
              481   114.942624E+06   -57.471136E+06   -57.470692E+06       2.56116724   344.827808E+06      -300.964142
              482   114.941624E+06   -57.471536E+06   -57.471868E+06       187.434280   344.828192E+06      -89.8641434
              483   114.944248E+06   -57.469632E+06   -57.469548E+06      -20.6827831   344.828064E+06       285.873779
              484   114.942408E+06   -57.471232E+06   -57.470968E+06      -54.4291573   344.827936E+06      -220.654922
              485    114.94252E+06   -57.471052E+06    -57.47086E+06      -6.90406752   344.827904E+06      -146.449356
              486   114.943352E+06    -57.47042E+06   -57.469768E+06       27.2399559      344.828E+06      -180.483612
              487   114.942128E+06   -57.471756E+06   -57.471272E+06      -16.5151024   344.828032E+06      -255.955994
              488    114.94384E+06    -57.46948E+06   -57.468928E+06       185.789001   344.827488E+06      -178.666397
              489   114.949648E+06   -57.463152E+06   -57.463356E+06  -1.09193762E+03    344.82768E+06       150.489304
              490   114.942392E+06   -57.470972E+06     -57.4702E+06      -40.5693779      344.828E+06       598.521851
              491   114.941232E+06     -57.4719E+06   -57.471164E+06       24.0352726   344.827968E+06       637.636963
              492   114.943328E+06   -57.470256E+06   -57.469748E+06      -35.9467239   344.828064E+06       225.220322
              493   114.944096E+06   -57.469432E+06    -57.46834E+06      -98.2537613   344.827392E+06       28.3853054
              494   114.944704E+06   -57.468532E+06   -57.467944E+06      -229.018173   344.827296E+06       269.626312
              495   114.953664E+06   -57.460264E+06     -57.4601E+06  -1.08021326E+03   344.825216E+06       381.867493
              496   114.944256E+06   -57.469596E+06    -57.46898E+06      -18.9936504   344.827936E+06       184.049057
              497   114.941912E+06   -57.470336E+06   -57.470092E+06      -406.697754   344.827168E+06       699.341492
              498    114.94308E+06   -57.470492E+06   -57.470136E+06       136.681885   344.827968E+06       241.014481
              499   114.937824E+06    -57.47606E+06   -57.474536E+06  -1.06489636E+03    344.82816E+06       350.597931
              500   114.942816E+06    -57.47058E+06    -57.47028E+06       232.670319    344.82768E+06       458.616791
              501   114.942368E+06   -57.471668E+06   -57.471692E+06      -70.1676254   344.827648E+06      -141.618973
              502   114.944272E+06   -57.469936E+06   -57.469828E+06      -161.706467   344.827264E+06      -276.274445
              503    114.94256E+06   -57.470824E+06   -57.470408E+06      -10.0124149   344.827744E+06      -164.739258
              504   114.941776E+06   -57.473224E+06   -57.472336E+06      -219.747421   344.828096E+06       200.075150
              505   114.943408E+06     -57.4697E+06   -57.468068E+06      -250.337173      344.828E+06      -233.019714
              506   114.943544E+06    -57.47112E+06   -57.470648E+06      -207.500076    344.82768E+06       442.608673
              507   114.950456E+06   -57.464828E+06   -57.464996E+06      -905.780884   344.827136E+06       745.994873
              508   114.949744E+06   -57.465944E+06    -57.46542E+06  -1.40483765E+03   344.827296E+06       153.551285
              509   114.942712E+06   -57.472936E+06   -57.472696E+06      -219.596786   344.827712E+06       9.49729729
              510   114.944096E+06   -57.470288E+06   -57.469916E+06      -344.245178   344.827936E+06      -79.9664764
              511   114.942232E+06   -57.472676E+06    -57.47308E+06      -261.913391      344.828E+06      -369.341827
              512    114.94348E+06   -57.470396E+06   -57.470284E+06      -112.164597    344.82784E+06      -53.4308243
              513   114.941992E+06   -57.471644E+06   -57.471576E+06      -90.9670792   344.827776E+06      -32.3920212
              514     114.9424E+06   -57.471828E+06   -57.471284E+06       39.8082848   344.828192E+06      -82.3014526
              515   114.942832E+06   -57.471052E+06     -57.4709E+06       1.13201272   344.827936E+06       67.9066162
              516    114.94188E+06    -57.47246E+06   -57.472308E+06      -145.445953   344.828256E+06       270.075195
              517   114.943856E+06   -57.469896E+06    -57.46974E+06      -150.571915   344.827936E+06      -74.3159409
              518   114.946696E+06   -57.470128E+06   -57.468596E+06   2.70026953E+03   344.827648E+06       648.976868
              519   114.940112E+06   -57.474176E+06    -57.47338E+06   2.53020142E+03   344.825632E+06       162.967896
              520   114.948192E+06   -57.467224E+06   -57.465992E+06       10.8954792   344.825824E+06       411.397552
              521   114.936888E+06   -57.476352E+06   -57.475576E+06      -942.282593   344.827072E+06       325.027771
              522   114.939056E+06     -57.4761E+06    -57.47568E+06  -1.03165417E+03    344.82816E+06      -351.103607
              523   114.948808E+06    -57.46632E+06   -57.464944E+06       746.340759   344.825568E+06       107.696495
              524    114.94236E+06   -57.470984E+06   -57.471064E+06      -72.7625122   344.827776E+06      -409.835846
              525    114.94164E+06   -57.472364E+06   -57.472588E+06       298.696747    344.83008E+06      -344.081512
              526   114.947296E+06   -57.469496E+06   -57.467752E+06   2.45263721E+03    344.82784E+06       213.270630
              527   114.954304E+06   -57.464996E+06    -57.46188E+06       817.514160   344.830016E+06       577.449219
              528   114.936792E+06   -57.470468E+06   -57.470548E+06       517.617859   344.827584E+06       329.770844
              529   114.958952E+06   -57.459984E+06     -57.4603E+06  -2.57074683E+03     344.8296E+06      -208.198059
              530   114.922168E+06   -57.490064E+06   -57.485908E+06  -1.77338733E+03   344.829312E+06       476.511780
              531     114.9484E+06   -57.465908E+06    -57.46624E+06   2.54066479E+03    344.82768E+06       212.080872
              532   114.941072E+06     -57.4714E+06    -57.47094E+06       480.926208   344.827424E+06      -542.580627
              533   114.935952E+06   -57.478208E+06   -57.477796E+06      -526.468323   344.828672E+06      -641.193542
              534   114.942896E+06   -57.470884E+06   -57.470216E+06       187.367935   344.827968E+06       89.1381607
              535   114.942632E+06   -57.473916E+06   -57.471652E+06       105.637177    344.82944E+06      -628.793335
              536     114.9384E+06   -57.476864E+06    -57.47604E+06   3.76399365E+03     344.8296E+06      -72.8420334
              537    114.95676E+06   -57.460048E+06   -57.459152E+06       83.5488739   344.827264E+06      -184.445847
              538   114.923616E+06   -57.482692E+06   -57.483156E+06      -990.079285   344.828224E+06   1.02305707E+03
              539   114.941688E+06   -57.472032E+06   -57.473088E+06      -277.055603   344.827136E+06      -194.870575
              540   114.942768E+06    -57.47094E+06   -57.471124E+06      -36.4152031   344.827776E+06       40.0914993
              541   114.944344E+06   -57.469664E+06   -57.469852E+06       153.457123   344.827424E+06       60.7894592
              542   114.943808E+06    -57.46952E+06   -57.469976E+06       468.585571   344.827008E+06       99.9088669
              543   114.942552E+06   -57.470648E+06   -57.471116E+06      -334.340515   344.827232E+06       67.3707886
              544   114.947064E+06   -57.467092E+06   -57.468156E+06      -473.174927   344.827072E+06      -552.790222
              545   114.940704E+06   -57.472608E+06   -57.472196E+06   1.47879346E+03   344.828736E+06      -371.607422
              546   114.938976E+06    -57.47634E+06   -57.476108E+06       328.452362   344.827744E+06  -1.09225659E+03
              547    114.94256E+06   -57.471488E+06     -57.4712E+06      -196.494843   344.827744E+06      -80.5227737
              548   114.941256E+06   -57.474724E+06   -57.475312E+06   2.33884497E+03   344.829184E+06       257.904388
              549   114.935056E+06   -57.473552E+06   -57.473936E+06       451.435486   344.826496E+06      -645.230774
              550   114.947728E+06   -57.466336E+06     -57.4671E+06      -473.591034   344.827296E+06       213.544571
              551   114.943824E+06   -57.470212E+06   -57.470344E+06      -20.3263931   344.827776E+06      -23.3224373
              552      114.943E+06   -57.470848E+06   -57.471108E+06       44.8908424    344.82768E+06       31.6589298
              553   114.943864E+06   -57.470164E+06    -57.47016E+06       177.362793   344.828192E+06       182.876404
              554   114.943384E+06   -57.470512E+06   -57.471056E+06       103.370781   344.827616E+06      -39.4070930
              555   114.944456E+06     -57.4685E+06   -57.469036E+06       312.345093     344.8272E+06      -362.915405
              556    114.94264E+06   -57.471436E+06   -57.471612E+06       124.615868   344.828192E+06       75.1170120
              557   114.942568E+06   -57.471236E+06   -57.471552E+06      -29.7035751    344.82768E+06       104.969193
              558   114.942488E+06     -57.4705E+06   -57.470444E+06       352.792694   344.827968E+06      -420.523560
              559   114.944248E+06   -57.468616E+06   -57.468208E+06       390.394684   344.827744E+06      -319.351410
              560   114.943816E+06   -57.469912E+06   -57.469552E+06       195.601486   344.827904E+06      -14.9349661
              561    114.94052E+06   -57.474244E+06   -57.473292E+06       373.930969      344.828E+06       362.469482
              562   114.941232E+06    -57.47188E+06   -57.472148E+06       590.057434   344.827392E+06       405.330109
              563   114.942344E+06   -57.471564E+06   -57.471644E+06       42.7592850   344.827904E+06      -58.7959900
              564    114.94276E+06   -57.470864E+06   -57.470512E+06      -152.259171   344.827872E+06      -94.1310730
              565   114.947552E+06   -57.468136E+06   -57.466684E+06   2.07719702E+03   344.829856E+06      -147.614578
              566     114.9268E+06   -57.485044E+06   -57.485868E+06   6.89216162E+03    344.82832E+06       273.687103
              567     114.9442E+06   -57.468508E+06   -57.468336E+06       473.771576   344.826752E+06      -466.452057
              568   114.949368E+06   -57.468584E+06   -57.468008E+06   1.29749438E+03   344.827936E+06      -350.427948
              569   114.938808E+06   -57.474488E+06   -57.473936E+06  -620.117962E-03   344.828512E+06      -31.7848167
              570    114.94384E+06   -57.469624E+06   -57.469184E+06       44.8831482      344.828E+06       125.961128
              571   114.942392E+06    -57.47138E+06    -57.47106E+06      -106.422348   344.827712E+06       92.0248489
              572   114.942928E+06    -57.47054E+06   -57.470312E+06       199.384857   344.827744E+06       32.2521439
              573   114.942504E+06   -57.471228E+06    -57.47078E+06      -48.8415298   344.827872E+06      -83.8728638
              574     114.9426E+06   -57.471232E+06   -57.471132E+06       18.3392029      344.828E+06       215.591217
              575    114.94152E+06   -57.472312E+06    -57.47152E+06       153.465271   344.827744E+06      -28.0942326
              576      114.943E+06   -57.470672E+06   -57.470356E+06       94.4116440   344.827808E+06       94.0003433
              577   114.942616E+06    -57.47116E+06   -57.471104E+06      -225.987717   344.827712E+06      -78.6454391
              578   114.941768E+06     -57.4718E+06   -57.471076E+06       149.802231   344.827904E+06      -386.820679
              579    114.94388E+06   -57.470508E+06    -57.47004E+06      -24.8457432   344.828384E+06      -187.382233
              580   114.942536E+06     -57.4653E+06    -57.46934E+06   2.57612842E+03     344.8248E+06      -791.269775
              581      114.924E+06    -57.48192E+06   -57.480752E+06      -459.020325   344.828352E+06       707.789063
              582   114.942792E+06   -57.467788E+06    -57.46584E+06   1.25604053E+03   344.826944E+06   1.19581274E+03
              583   115.003864E+06   -57.421808E+06   -57.422544E+06   4.69437207E+03   344.824672E+06       883.697876
              584    114.93924E+06   -57.472548E+06   -57.473232E+06   1.86645007E+03   344.823488E+06       319.574463
              585   114.942624E+06   -57.470876E+06   -57.470704E+06      -198.356277   344.827552E+06       88.7347107
              586   114.942672E+06   -57.471164E+06   -57.470876E+06      -19.5811806   344.827776E+06       66.4317169
              587   114.942864E+06   -57.470844E+06   -57.470708E+06       11.2905197    344.82768E+06       53.4144859
              588   114.937664E+06    -57.47812E+06   -57.477212E+06      -796.677307   344.826912E+06      -649.837769
              589   114.942864E+06   -57.471148E+06   -57.470756E+06      -2.32086873   344.827904E+06      -37.4387436
              590    114.94216E+06    -57.47186E+06   -57.471496E+06       67.4438934      344.828E+06      -68.9732132
              591   114.943056E+06    -57.47104E+06    -57.47058E+06       165.963135   344.828128E+06       24.0368595
              592   114.949536E+06   -57.467276E+06   -57.466876E+06      -42.7792282   344.828288E+06      -228.717422
              593   114.946848E+06   -57.470184E+06   -57.470332E+06   1.66526013E+03   344.826592E+06       628.974792
              594   114.942768E+06   -57.470484E+06   -57.470444E+06       801.435730   344.827648E+06       303.417236
              595    114.93652E+06   -57.473496E+06   -57.474724E+06      -723.088379     344.8272E+06  -1.01671765E+03
              596    114.93628E+06   -57.477084E+06   -57.477388E+06   2.28914771E+03   344.828256E+06   1.64337329E+03
              597   114.943664E+06   -57.470104E+06    -57.47032E+06       89.5556412   344.827776E+06       394.716187
              598   114.941504E+06   -57.472344E+06   -57.472608E+06       163.933350   344.827648E+06       254.000046
              599   114.937704E+06   -57.477328E+06   -57.476884E+06       417.350128   344.829024E+06      -145.438644
              600   114.941728E+06    -57.46968E+06   -57.473884E+06   1.00240533E+03   344.827872E+06      -235.225342
              601    114.93996E+06   -57.473268E+06   -57.474076E+06       216.272705   344.827456E+06       658.920166
              602   114.943552E+06   -57.469372E+06   -57.469572E+06      -204.007019   344.828064E+06       9.27301407
              603    114.92944E+06   -57.486512E+06   -57.484212E+06   3.57290869E+03      344.832E+06  -1.13727124E+03
              604   114.935576E+06   -57.474968E+06     -57.4787E+06      -208.904556   344.827232E+06      -878.492981
              605   114.942616E+06   -57.470368E+06    -57.47322E+06   1.37569031E+03   344.828352E+06  -1.05826563E+03
              606   114.935768E+06   -57.475452E+06   -57.474068E+06  -1.55047461E+03   344.829312E+06       182.176132
              607   114.942712E+06   -57.471264E+06    -57.47126E+06      -98.9408340   344.827872E+06      -99.0261536
              608   114.942864E+06   -57.470868E+06   -57.470968E+06       7.35243130   344.827712E+06       22.7345047
              609   114.943448E+06   -57.470652E+06   -57.470224E+06      -37.1752510   344.827904E+06   419.058800E-03
              610   114.942568E+06   -57.471256E+06   -57.471124E+06       9.69560051   344.827744E+06       119.360428
              611    114.94296E+06   -57.470868E+06   -57.470512E+06      -8.37672424   344.827776E+06       109.680702
              612   114.942048E+06   -57.471396E+06   -57.471516E+06       28.1167374   344.827712E+06      -217.417358
              613     114.9416E+06   -57.472172E+06   -57.472688E+06      -270.252197   344.827584E+06      -420.679138
              614   114.942824E+06   -57.470808E+06    -57.47064E+06      -6.88852358   344.827616E+06       53.0608864
              615   114.943248E+06   -57.470056E+06   -57.470156E+06      -144.936844   344.827872E+06      -232.076324
              616   114.941752E+06   -57.471856E+06    -57.47276E+06      -423.486267   344.826816E+06      -269.764160
              617    114.94224E+06    -57.47136E+06   -57.471228E+06      -94.3795700   344.827744E+06      -14.3425665
              618   114.942744E+06   -57.471356E+06   -57.470996E+06       165.730942   344.828128E+06      -4.40527296
              619   114.942776E+06   -57.471068E+06   -57.470816E+06      -61.4959335   344.827712E+06       50.1440811
              620   114.942656E+06   -57.471056E+06   -57.471084E+06       36.9790154   344.828096E+06       250.544861
              621   114.943504E+06    -57.47016E+06   -57.469964E+06      -19.5090847   344.827808E+06      -39.6479645
              622   114.943904E+06   -57.470492E+06   -57.470056E+06      -272.741852    344.82784E+06      -62.1132622
              623   114.943056E+06   -57.470672E+06   -57.470552E+06      -70.3682709    344.82768E+06      -19.3961334
              624   114.942944E+06   -57.470928E+06    -57.47132E+06      -234.131393   344.827776E+06      -285.226563
              625   114.942368E+06   -57.471664E+06    -57.47172E+06      -89.9217758   344.828096E+06      -127.095970
              626   114.942328E+06   -57.471744E+06   -57.472028E+06      -178.158875   344.828096E+06      -160.438110
              627   114.942624E+06   -57.471536E+06   -57.471512E+06      -199.448135   344.827968E+06      -237.282898
              628   114.943112E+06   -57.470784E+06   -57.470984E+06      -52.9718094   344.827936E+06      -133.771210
              629    114.94248E+06    -57.47136E+06   -57.471888E+06      -126.190544   344.827936E+06      -232.861771
              630   114.944808E+06   -57.469764E+06   -57.469336E+06       156.999084      344.828E+06       20.2484913
              631   114.942896E+06   -57.470932E+06   -57.470504E+06       5.45937634   344.827648E+06       112.375298
              632   114.941168E+06    -57.47276E+06   -57.472628E+06      -91.3329620   344.827776E+06      -129.739395
              633   114.942648E+06    -57.47106E+06   -57.470724E+06      -167.073807   344.827872E+06      -130.273514
              634   114.940944E+06   -57.473672E+06   -57.473904E+06       253.097855   344.827744E+06       337.959717
              635   114.943408E+06   -57.470432E+06   -57.470272E+06      -376.575928   344.827904E+06      -73.4232025
              636   114.941448E+06    -57.47226E+06   -57.472832E+06      -144.833618   344.827744E+06      -375.547699
              637    114.90796E+06     -57.4954E+06   -57.496352E+06  -1.15187085E+03   344.829152E+06       762.794983
              638   114.949064E+06   -57.466736E+06   -57.466044E+06   1.76751758E+03   344.829056E+06       905.900452
              639   114.948424E+06   -57.467664E+06   -57.467384E+06  -1.33466357E+03   344.828128E+06      -660.351440
              640    114.94332E+06   -57.472232E+06   -57.471452E+06       699.185852   344.828896E+06       -261.78125
              641   114.949328E+06   -57.462716E+06   -57.462448E+06  -3.58974756E+03   344.825312E+06      -264.665375
              642   114.942496E+06    -57.47142E+06    -57.47146E+06      -197.935318   344.827808E+06      -23.5768280
              643   114.935328E+06   -57.478032E+06   -57.477724E+06       358.329895   344.829344E+06      -158.090027
              644   114.940632E+06   -57.475476E+06   -57.473656E+06       448.524078   344.828928E+06      -171.484329
              645   114.929848E+06     -57.4859E+06   -57.483476E+06  -3.32968970E+03   344.830528E+06      -462.167725
              646   114.952096E+06   -57.468996E+06    -57.46788E+06  -3.56072192E+03   344.828128E+06      -598.735474
              647   114.942608E+06   -57.471564E+06   -57.472364E+06      -31.3419724   344.827712E+06      -663.590820
              648   114.954296E+06   -57.458468E+06   -57.458136E+06  -1.93002136E+03   344.826272E+06  -3.04785669E+03
              649   114.926528E+06   -57.483028E+06   -57.482492E+06       356.171936    344.83024E+06      -405.962097
              650   114.968672E+06   -57.453596E+06    -57.45332E+06   2.26417285E+03   344.829248E+06       298.275208
              651   114.944584E+06   -57.469696E+06      -57.471E+06       259.771271   344.827392E+06      -413.411072
              652   114.943816E+06       -57.47E+06   -57.470832E+06       408.382263   344.827584E+06       152.654938
              653   114.947096E+06   -57.467696E+06   -57.466884E+06      -167.193390   344.827168E+06      -300.267944
              654   114.932712E+06   -57.474768E+06   -57.473712E+06  -3.48385156E+03   344.826016E+06       313.883453
              655    114.92724E+06   -57.484948E+06    -57.48516E+06      -73.1041489   344.831584E+06       937.931702
              656   114.941336E+06    -57.47414E+06    -57.47376E+06       131.742203    344.82832E+06       413.468781
              657   114.959328E+06   -57.458592E+06    -57.45722E+06  -2.47736304E+03   344.829728E+06      -717.083191
              658   114.946648E+06    -57.46744E+06   -57.467296E+06       63.1644707   344.827488E+06      -106.341988
              659   114.940808E+06   -57.473228E+06    -57.47338E+06      -483.957886      344.828E+06      -369.388092
              660   114.941976E+06   -57.471792E+06   -57.471556E+06      -167.310593   344.827776E+06      -88.0591507
              661   114.938856E+06   -57.475544E+06   -57.476764E+06      -536.188232   344.826912E+06  -1.36583276E+03
              662   114.945304E+06   -57.470148E+06   -57.469464E+06       336.381775   344.827456E+06       37.7856102
              663   114.946056E+06   -57.468148E+06     -57.4676E+06   1.24072754E+03    344.82848E+06       490.861206
              664   114.953688E+06    -57.46306E+06   -57.463232E+06       739.559021   344.828992E+06       324.645599
              665   114.994768E+06   -57.429512E+06    -57.42974E+06  -11.9451582E+03   344.824256E+06   1.05251953E+03
              666    114.94248E+06    -57.47094E+06   -57.471596E+06      -11.2574339    344.82768E+06       90.7730942
              667   114.942184E+06   -57.471548E+06   -57.473268E+06       169.905350   344.826752E+06      -4.95264339
              668   114.941544E+06   -57.472828E+06    -57.47296E+06      -286.664185   344.828992E+06  -1.02705408E+03
              669    114.94344E+06    -57.46998E+06    -57.46942E+06      -313.985046      344.828E+06      -339.404724
              670   114.947848E+06   -57.467548E+06   -57.468888E+06       890.127808   344.827872E+06       379.532990
              671   114.947984E+06    -57.46738E+06   -57.466912E+06      -159.383713   344.827648E+06       59.7469292
              672   114.946288E+06   -57.467804E+06   -57.467948E+06      -431.654755   344.828032E+06      -578.900818
              673   114.943096E+06    -57.46962E+06   -57.470404E+06       95.4775391   344.827488E+06       37.1352539
              674   114.942296E+06   -57.472176E+06   -57.471648E+06      -138.433182   344.828032E+06      -134.991592
              675   114.940224E+06   -57.472412E+06   -57.472532E+06      -854.542847    344.82816E+06       424.013153
              676   114.946056E+06   -57.468368E+06    -57.46822E+06  -1.02967480E+03   344.828992E+06      -745.600281
              677    114.94228E+06    -57.47052E+06   -57.471724E+06      -703.504333   344.827264E+06  -1.01141724E+03
              678   114.941064E+06   -57.471412E+06    -57.47126E+06      -917.021606   344.828384E+06       197.128159
              679    114.94552E+06    -57.46698E+06   -57.466692E+06      -944.302612   344.827296E+06      -273.427490
              680   114.944752E+06   -57.469192E+06   -57.469484E+06      -714.556885   344.828032E+06       141.516876
              681   114.945536E+06   -57.468736E+06   -57.468824E+06       183.767181    344.82624E+06       409.283112
              682    114.94308E+06   -57.470856E+06     -57.4706E+06      -101.821983   344.827968E+06      -87.1988373
              683   114.954416E+06   -57.459136E+06   -57.460996E+06   1.07035266E+03    344.82656E+06   1.24004553E+03
              684    114.97304E+06      -57.446E+06   -57.447656E+06   3.50274365E+03   344.827232E+06       265.794983
              685   114.942416E+06   -57.472196E+06   -57.472268E+06      -423.087646   344.828032E+06      -253.688965
              686   114.936712E+06    -57.47388E+06   -57.477396E+06      -551.419800   344.828704E+06      -214.923630
              687   114.939992E+06   -57.470064E+06   -57.473352E+06  -1.32107556E+03   344.829696E+06  -1.07617993E+03
              688   114.949488E+06   -57.465332E+06   -57.465652E+06      -356.103973   344.827392E+06      -178.920319
              689   114.937872E+06   -57.476684E+06   -57.477332E+06      -979.874512   344.827936E+06       834.587830
              690   114.941064E+06    -57.46938E+06   -57.472516E+06      -199.578201   344.828896E+06       263.173706
              691   114.943104E+06   -57.473808E+06     -57.4742E+06       937.592712   344.827744E+06      -12.3816023
              692   114.957464E+06   -57.463196E+06   -57.462948E+06  -1.60769727E+03   344.828288E+06      -349.873993
              693   114.941616E+06   -57.472824E+06    -57.47406E+06      -90.9786377   344.828288E+06      -409.254303
              694   114.939504E+06   -57.474844E+06   -57.476216E+06      -64.6313248   344.828608E+06      -425.651184
              695   114.943504E+06   -57.470448E+06   -57.470784E+06       231.444092   344.827616E+06       40.8261566
              696   114.942432E+06   -57.471136E+06   -57.471572E+06      -212.615204   344.827456E+06       148.424911
              697   114.940712E+06   -57.472688E+06     -57.4738E+06       51.1822624   344.827328E+06       74.9705963
              698   114.939128E+06    -57.47448E+06   -57.475804E+06       626.510071   344.827008E+06       32.7970200
              699    114.95016E+06   -57.466836E+06   -57.466292E+06      -430.737579   344.826368E+06      -216.526382
              700   114.937328E+06   -57.473644E+06   -57.475836E+06   1.01964911E+03   344.827616E+06      -588.754211
              701   114.944136E+06   -57.470152E+06    -57.47072E+06      -277.326080   344.827776E+06      -394.297455
              702   114.939384E+06   -57.473928E+06   -57.474228E+06   1.54587805E+03   344.827424E+06       355.676697
              703    114.95472E+06    -57.46018E+06   -57.460752E+06   2.52951416E+03   344.825856E+06       164.091248
              704    114.94408E+06   -57.470216E+06   -57.470184E+06      -234.607971   344.827488E+06       206.264572
              705   114.948352E+06   -57.465252E+06   -57.464688E+06       557.065674   344.826464E+06       717.011475
              706     114.9428E+06   -57.471456E+06    -57.47094E+06       65.1116791   344.827936E+06      -10.2755919
              707   114.946496E+06    -57.46768E+06   -57.467636E+06      -493.850800   344.828544E+06       828.197144
              708   114.943992E+06     -57.4698E+06   -57.470004E+06      -630.025940   344.826432E+06      -255.734238
              709    114.94584E+06   -57.468736E+06   -57.467268E+06      -255.684341     344.8288E+06      -367.108612
              710   114.944984E+06   -57.469248E+06   -57.469576E+06      -752.022644   344.828064E+06       49.9287529
              711   114.941912E+06   -57.472616E+06   -57.472644E+06       104.726776    344.82784E+06      -20.2827301
              712   114.943736E+06   -57.470596E+06   -57.470276E+06       317.555756   344.827808E+06       129.190292
              713    114.93912E+06   -57.475868E+06   -57.477064E+06       280.256592   344.828864E+06       928.704285
              714   114.936416E+06   -57.478416E+06   -57.477216E+06   1.25043176E+03   344.831296E+06   1.01265277E+03
              715   114.936568E+06   -57.474852E+06   -57.474484E+06   1.06206860E+03   344.828672E+06  -1.32841443E+03
              716   114.943192E+06   -57.471892E+06   -57.472248E+06      -475.708008   344.829024E+06      -179.993988
              717   114.944824E+06   -57.469748E+06   -57.467652E+06  -1.31774609E+03    344.82768E+06       704.120728
              718   114.904768E+06   -57.502468E+06   -57.501724E+06  -5.84923291E+03    344.82944E+06   1.00458765E+03
              719   114.951512E+06   -57.464656E+06   -57.461464E+06  -1.64637329E+03   344.829344E+06       320.754456
              720   114.947592E+06    -57.46514E+06   -57.467524E+06   1.24509924E+03   344.830112E+06      -565.442261
              721   114.940768E+06    -57.47096E+06   -57.471756E+06   1.54401904E+03    344.83232E+06      -789.833618
              722   114.937608E+06   -57.467792E+06   -57.467744E+06   6.76460254E+03   344.822048E+06      -595.241760
              723   115.006088E+06   -57.421936E+06   -57.422872E+06  -2.14585742E+03   344.823904E+06       234.043610
              724   114.942712E+06   -57.472148E+06    -57.47338E+06       353.222504   344.827456E+06      -902.105286
              725   114.940936E+06   -57.473008E+06     -57.4733E+06      -32.4990921   344.828064E+06      -211.456909
              726    114.94128E+06   -57.471572E+06   -57.472212E+06   1.04966614E+03   344.827904E+06       298.863861
              727   114.942752E+06   -57.471384E+06    -57.47104E+06      -3.83649540   344.827968E+06   443.952143E-03
              728   114.944824E+06   -57.470028E+06   -57.469524E+06      -72.0286331   344.827744E+06      -429.812531
              729    114.94328E+06   -57.470824E+06     -57.4714E+06      -8.59653854   344.827744E+06      -213.505020
              730   114.942128E+06    -57.47252E+06   -57.473272E+06      -718.221436   344.827744E+06      -844.253113
              731   114.944384E+06    -57.47006E+06   -57.469876E+06      -929.962463   344.828192E+06      -568.771301
              732   114.942216E+06   -57.472576E+06   -57.472484E+06      -611.843567   344.828128E+06      -446.497986
              733   114.942968E+06    -57.47112E+06   -57.471008E+06      -138.660721   344.827904E+06      -123.280479
              734    114.94256E+06   -57.471236E+06   -57.471156E+06      -12.8557415   344.827744E+06      -13.5291414
              735    114.94264E+06   -57.470796E+06   -57.471068E+06       110.550774   344.827584E+06       133.652115
              736   114.943616E+06   -57.470928E+06   -57.470696E+06       53.7820625   344.828032E+06      -116.254318
              737   114.941192E+06   -57.481588E+06   -57.481268E+06       778.727478   344.834112E+06  -1.52834937E+03
              738   114.946992E+06    -57.46828E+06    -57.46774E+06      -167.972534   344.827968E+06       13.4677267
              739   114.944288E+06   -57.470232E+06   -57.469804E+06      -287.618652   344.828192E+06      -369.827240
              740    114.94388E+06   -57.470988E+06   -57.470848E+06      -787.380310   344.827744E+06      -463.927551
              741    114.94488E+06   -57.469196E+06    -57.46942E+06      -283.098419   344.828032E+06      -83.6312408
              742   114.942312E+06   -57.471532E+06   -57.471472E+06       19.2145596   344.828064E+06      -108.906380
              743   114.944448E+06   -57.470108E+06    -57.46996E+06      -259.585510    344.82784E+06      -187.385849
              744   114.942648E+06   -57.471316E+06   -57.471004E+06       14.5459833   344.828096E+06      -159.410187
              745    114.94192E+06     -57.4724E+06   -57.472448E+06      -82.7598495   344.828672E+06      -68.0596390
              746   114.937896E+06   -57.476532E+06    -57.47678E+06       766.169006   344.828416E+06      -491.396210
              747    114.94668E+06   -57.466884E+06     -57.4655E+06       80.4813538   344.828096E+06       795.281555
              748   114.942592E+06   -57.471084E+06    -57.47074E+06       23.1388130   344.827744E+06       50.7720032
              749   114.943376E+06   -57.470692E+06   -57.470192E+06       182.755798   344.828256E+06       69.9546509
              750   114.942944E+06   -57.471336E+06   -57.470532E+06       129.618484   344.828448E+06       201.651260
              751     114.9478E+06   -57.467052E+06   -57.467188E+06      -596.671326    344.82768E+06       83.4682770
              752   114.937336E+06   -57.476172E+06    -57.47534E+06   1.97020557E+03   344.829792E+06      -173.086395
              753   114.938808E+06   -57.472896E+06   -57.473272E+06      -277.152954   344.828416E+06       62.5403671
              754   114.942912E+06   -57.469968E+06   -57.469304E+06       242.741882    344.82688E+06       525.595459
              755   114.960352E+06   -57.452424E+06    -57.45312E+06      -187.375412   344.823392E+06   1.27905005E+03
              756   114.951816E+06   -57.461416E+06   -57.462024E+06      -662.036743   344.825024E+06       698.432190
              757   114.946808E+06   -57.466048E+06   -57.465612E+06       92.0534897    344.82752E+06       974.411316
              758    114.94568E+06   -57.466944E+06   -57.466548E+06      -140.412369   344.827776E+06       903.539368
              759    114.94236E+06   -57.471328E+06   -57.471012E+06      -12.9827089   344.827936E+06       78.2022247
              760   114.942712E+06   -57.470272E+06   -57.470416E+06       77.3334961   344.827968E+06      -2.30408645
              761   114.942896E+06   -57.470356E+06   -57.469744E+06       238.240280   344.828096E+06       10.8215380
              762   114.945064E+06    -57.46846E+06     -57.4681E+06      -138.786804   344.827584E+06      -588.485718
              763   114.941664E+06   -57.471576E+06   -57.471888E+06      -653.051697   344.827392E+06      -420.415955
              764   114.944696E+06     -57.4691E+06     -57.4685E+06      -88.1553955   344.828096E+06      -220.408157
              765   114.948976E+06   -57.463468E+06   -57.462748E+06   1.36625439E+03      344.824E+06  -882.406294E-03
              766   114.936352E+06   -57.475944E+06   -57.477188E+06  -1.08097107E+03   344.828224E+06      -404.338257
              767   114.946552E+06   -57.467208E+06   -57.466064E+06      -163.171753   344.827744E+06      -549.106262
              768   114.945232E+06   -57.467384E+06    -57.46822E+06       603.325256   344.827552E+06      -695.786682
              769    114.94376E+06   -57.468388E+06   -57.469128E+06      -168.289154      344.828E+06       521.503540
              770    114.94184E+06   -57.471508E+06   -57.471364E+06      -93.1315231    344.82784E+06      -218.971252
              771   114.942112E+06   -57.471464E+06   -57.471268E+06  -152.138665E-03   344.828064E+06      -55.1216049
              772   114.938968E+06   -57.474252E+06   -57.474848E+06       265.961731   344.828416E+06      -286.318939
              773    114.93996E+06   -57.473564E+06   -57.473392E+06       394.719391    344.82832E+06      -28.7311020
              774   114.943672E+06   -57.470232E+06   -57.470344E+06       1.15938973   344.827968E+06       244.528168
              775    114.94284E+06    -57.47138E+06   -57.471828E+06       31.0046463   344.827904E+06       171.229752
              776   114.943432E+06   -57.471068E+06   -57.471276E+06       71.9368515   344.827904E+06      -84.9527054
              777    114.94324E+06   -57.470872E+06   -57.471232E+06       33.9569626   344.827808E+06       146.869446
              778   114.942312E+06   -57.471364E+06   -57.471496E+06      -276.950195      344.828E+06       148.726486
              779   114.942872E+06   -57.471068E+06    -57.47108E+06       100.942307   344.828032E+06       270.953400
              780   114.942664E+06   -57.471368E+06   -57.471732E+06      -9.40276623   344.827904E+06       100.939903
              781   114.942688E+06   -57.471268E+06   -57.471376E+06      -108.161461   344.827968E+06       61.1714249
              782   114.942616E+06   -57.471196E+06    -57.47132E+06       70.4756546   344.827936E+06       280.177032
              783   114.941512E+06     -57.4732E+06   -57.473916E+06       7.77552748   344.828064E+06      -129.071320
              784   114.932944E+06   -57.479044E+06   -57.479032E+06   1.44804297E+03   344.830048E+06      -842.170166
              785    114.94004E+06   -57.474304E+06    -57.47402E+06       171.159317   344.828704E+06      -450.861694
              786   114.948208E+06   -57.464816E+06    -57.46504E+06       579.122925   344.827968E+06      -688.076233
              787   114.947064E+06    -57.46752E+06   -57.467532E+06       672.144104   344.827584E+06       42.2930832
              788    114.94044E+06   -57.473316E+06   -57.473396E+06       518.159546   344.827776E+06       326.833466
              789   114.942552E+06   -57.470596E+06   -57.469188E+06      -965.326538   344.829472E+06       291.753296
              790   114.940856E+06   -57.472968E+06   -57.473008E+06       355.450623   344.828256E+06       132.394562
              791     114.9424E+06   -57.472168E+06   -57.472084E+06       532.342468   344.827872E+06       444.658264
              792   114.942552E+06    -57.47112E+06   -57.471228E+06       234.895248   344.827712E+06      -2.33689618
              793   114.947032E+06    -57.46424E+06   -57.464972E+06  -2.04253027E+03   344.827424E+06       500.258606
              794   114.943384E+06   -57.470792E+06    -57.47088E+06       198.872803   344.828064E+06       152.809921
              795   114.942896E+06    -57.47142E+06   -57.471224E+06       174.393417    344.82832E+06      -143.740997
              796   114.963344E+06   -57.453028E+06   -57.453296E+06   9.12906738E+03   344.826592E+06       197.566833
              797    114.93948E+06    -57.47368E+06   -57.473508E+06      -78.1171951    344.82944E+06      -91.4503098
              798   114.946264E+06   -57.468552E+06   -57.468264E+06       285.139832   344.827712E+06      -144.804657
              799   114.937216E+06   -57.473912E+06   -57.473504E+06  -1.93744250E+03   344.825344E+06       117.014343
              800   114.942904E+06   -57.470968E+06   -57.471044E+06       177.536011   344.828128E+06      -81.2455521
              801     114.9402E+06   -57.472812E+06   -57.473156E+06      -559.543884    344.82704E+06      -241.522629
              802   114.942864E+06   -57.470824E+06   -57.470812E+06      -15.6378145   344.827712E+06       12.1499453
              803   114.942592E+06   -57.471156E+06   -57.471028E+06       65.8134308    344.82768E+06       8.59384346
              804   114.942392E+06   -57.471296E+06   -57.471072E+06      -80.4404602   344.827488E+06       88.3091202
              805   114.947496E+06   -57.467416E+06   -57.467184E+06       429.479126   344.827744E+06      -76.3807678
              806   114.940416E+06   -57.473328E+06   -57.473908E+06       271.102325   344.827744E+06       79.4231415
              807   114.943272E+06   -57.470676E+06   -57.470708E+06      -51.5068130   344.827872E+06       3.44577527
              808   114.943256E+06   -57.470728E+06   -57.470636E+06      -42.6011467   344.827936E+06      -178.533463
              809   114.944344E+06   -57.469976E+06   -57.470172E+06       250.172714   344.827584E+06      -27.8739586
              810   114.942688E+06   -57.471376E+06   -57.471528E+06       111.259598   344.827648E+06      -74.8777008
              811   114.944912E+06   -57.469188E+06   -57.468912E+06      -311.878296   344.827808E+06      -8.77176952
              812   114.945024E+06   -57.469728E+06   -57.469236E+06       67.6624374      344.828E+06       58.6246223
              813    114.94284E+06   -57.471056E+06   -57.470692E+06       64.0608139   344.827936E+06      -18.6153984
              814   114.942696E+06   -57.471308E+06     -57.4712E+06      -76.1349869   344.827872E+06      -63.8097534
              815   114.943192E+06   -57.470724E+06    -57.47056E+06      -67.1791916   344.827936E+06      -92.8329773
              816   114.912392E+06   -57.494056E+06   -57.494896E+06   1.22171497E+03   344.825888E+06      -137.155914
              817   114.943112E+06   -57.470736E+06   -57.470976E+06      -27.7551384   344.827808E+06      -113.670067
              818   114.942944E+06   -57.470872E+06   -57.470572E+06       27.5116482   344.827968E+06      -155.052628
              819   114.944656E+06   -57.469196E+06   -57.469716E+06      -350.953156   344.827488E+06       284.300232
              820    114.94316E+06      -57.471E+06   -57.471068E+06       176.199142    344.82752E+06       133.018860
              821   114.943704E+06   -57.470284E+06   -57.469928E+06      -119.920280   344.827616E+06       138.692230
              822   114.945008E+06   -57.469584E+06   -57.468576E+06       42.7845840   344.827264E+06      -121.779808
              823   114.942968E+06   -57.470648E+06   -57.470284E+06       86.3738174   344.827776E+06       75.3643341
              824   114.942784E+06   -57.470772E+06    -57.47074E+06      -11.9279041   344.827744E+06       17.9270897
              825   114.939952E+06   -57.474064E+06    -57.47372E+06       135.669037    344.82816E+06      -581.662415
              826     114.9412E+06   -57.472844E+06   -57.472316E+06      -48.1147766   344.828224E+06      -752.737549
              827   114.941688E+06   -57.472188E+06   -57.472032E+06      -4.12750578    344.82784E+06      -25.0839634
              828   114.942256E+06   -57.471824E+06   -57.471544E+06       59.3476448   344.827744E+06       131.443420
              829    114.94196E+06   -57.471516E+06   -57.471632E+06      -87.7250290   344.827968E+06      -373.632843
              830   114.942808E+06   -57.470608E+06   -57.470468E+06      -125.699173   344.827968E+06      -35.2399864
              831   114.941696E+06    -57.47202E+06   -57.472088E+06       16.4767017   344.828128E+06      -26.6117535
              832   114.944448E+06     -57.4692E+06   -57.468288E+06      -107.456398   344.827712E+06       99.0413437
              833   114.924168E+06   -57.488424E+06   -57.490768E+06  -1.10989697E+03   344.827008E+06   1.02624048E+03
              834   114.943248E+06   -57.470808E+06   -57.470712E+06      -80.2143326   344.827936E+06      -102.508644
              835   114.943536E+06   -57.470264E+06   -57.470504E+06      -105.588211    344.82784E+06      -167.098938
              836   114.941432E+06   -57.473452E+06   -57.472532E+06       21.2694016      344.828E+06       208.453705
              837   114.944008E+06   -57.470244E+06   -57.470028E+06      -117.364250    344.82784E+06       8.30490780
              838   114.943752E+06   -57.470184E+06   -57.469968E+06      -167.950607    344.82784E+06       28.2196770
              839   114.944008E+06    -57.47014E+06   -57.470128E+06      -137.472672   344.827648E+06      -57.8580475
              840   114.941992E+06    -57.47182E+06   -57.471884E+06       85.1422958   344.828224E+06      -143.486954
              841   114.942648E+06   -57.471556E+06    -57.47136E+06      -53.5704498   344.828128E+06      -57.2874489
              842   114.944368E+06     -57.4696E+06   -57.469264E+06      -20.8336830   344.827904E+06      -39.9452667
              843   114.942944E+06   -57.471268E+06    -57.47124E+06      -219.101639   344.827936E+06      -233.485962
              844   114.944104E+06   -57.470016E+06   -57.469932E+06      -318.056885   344.827904E+06       226.575562
              845   114.944048E+06   -57.469856E+06   -57.469652E+06      -155.056107   344.827936E+06       106.851624
              846   114.943008E+06   -57.471096E+06   -57.471264E+06      -45.8765221   344.827968E+06       163.723373
              847    114.94228E+06   -57.471952E+06   -57.472012E+06      -18.2866745   344.828416E+06       129.872742
              848   114.942704E+06    -57.47142E+06   -57.471592E+06      -97.8981171   344.827936E+06       105.198143
              849   114.941688E+06   -57.472156E+06    -57.47232E+06      -31.0684204   344.828064E+06       167.373886
              850   114.943192E+06   -57.470464E+06   -57.470576E+06      -78.2250748      344.828E+06       95.4192200
              851   114.943256E+06   -57.470416E+06   -57.470636E+06      -85.7008667   344.827904E+06       158.720459
              852    114.94208E+06   -57.471724E+06   -57.471844E+06       115.322556   344.828032E+06       89.2116928
              853    114.93636E+06    -57.47808E+06   -57.479712E+06      -134.518890   344.828032E+06       376.130341
              854   114.945008E+06   -57.468224E+06     -57.4674E+06      -324.258789   344.828096E+06   1.21874548E+03
              855   114.942376E+06   -57.471804E+06   -57.470844E+06      -40.1922951   344.827744E+06       192.920471
              856   114.943704E+06    -57.46946E+06   -57.468748E+06       142.789658   344.827616E+06      -646.291565
              857   114.943824E+06   -57.470208E+06   -57.470396E+06       22.8778763    344.82784E+06      -206.869751
              858   114.942704E+06    -57.47186E+06   -57.472036E+06       94.9788208   344.828448E+06      -141.933884
              859   114.942464E+06   -57.471136E+06   -57.470896E+06      -50.6657372   344.827776E+06      -147.240799
              860    114.94308E+06    -57.47072E+06   -57.470548E+06       21.1820278    344.82784E+06       43.0991554
              861   114.942696E+06     -57.4698E+06   -57.469408E+06      -512.156006   344.827296E+06      -381.308472
              862   114.984232E+06   -57.436452E+06   -57.438076E+06   1.28316833E+03   344.820672E+06   2.12953027E+03
              863   114.943928E+06   -57.470148E+06   -57.469992E+06      -67.0231094   344.827968E+06      -42.9832344
              864   114.943032E+06   -57.471656E+06   -57.471788E+06      -723.829529   344.828608E+06       101.882751
              865    114.94756E+06    -57.46712E+06    -57.46748E+06      -98.7803955   344.827456E+06       76.1090546
              866    114.94416E+06   -57.470228E+06   -57.470036E+06       81.0277863      344.828E+06      -115.664467
              867   114.940656E+06    -57.47348E+06   -57.473416E+06       216.545181   344.828512E+06      -24.6667118
              868   114.941424E+06   -57.465804E+06   -57.464324E+06  -1.21151917E+03   344.824064E+06  -1.39367883E+03
              869   114.941456E+06   -57.472652E+06   -57.472384E+06       299.959259   344.828256E+06      -230.414841
              870   114.944408E+06   -57.468008E+06   -57.467096E+06       540.389893   344.827104E+06      -344.378082
              871   114.942624E+06    -57.47152E+06   -57.471488E+06       190.511688   344.827968E+06      -140.668243
              872    114.93988E+06   -57.472696E+06    -57.47294E+06      -629.348206   344.827456E+06      -9.69280529
              873   114.942736E+06   -57.471044E+06   -57.470868E+06      -43.3059349   344.827744E+06       47.1307755
              874    114.94096E+06   -57.472864E+06   -57.472728E+06       128.092209   344.828384E+06      -187.412979
              875    114.94224E+06   -57.472076E+06   -57.471608E+06       322.884369      344.828E+06       223.728714
              876   114.943216E+06   -57.470716E+06   -57.470328E+06       106.571609   344.827904E+06       194.740097
              877   114.941024E+06    -57.47226E+06   -57.472984E+06       146.163971   344.827712E+06      -687.138611
              878   114.978848E+06   -57.442392E+06   -57.442708E+06  -2.13257275E+03   344.827168E+06       96.3150711
              879   114.940872E+06    -57.47308E+06   -57.473248E+06       19.5841751   344.828288E+06      -241.477249
              880   114.942624E+06    -57.47154E+06   -57.471652E+06       47.3359032   344.827904E+06       26.5079117
              881   114.943128E+06   -57.470764E+06   -57.470884E+06      -26.7428417   344.827904E+06       3.82826066
              882    114.94184E+06   -57.471844E+06    -57.47176E+06       109.918968   344.828128E+06      -45.1223984
              883   114.941328E+06   -57.472544E+06   -57.472692E+06      -73.8844223   344.828032E+06      -267.208862
              884   114.946352E+06     -57.4685E+06   -57.469924E+06   1.02596301E+03   344.828128E+06       366.634583
              885   114.945496E+06   -57.469492E+06   -57.469996E+06   1.14343286E+03   344.828032E+06      -661.052124
              886   114.950288E+06   -57.465704E+06   -57.465076E+06       998.657776   344.829376E+06   2.87569287E+03
              887   114.944568E+06    -57.47106E+06   -57.472076E+06       418.948181   344.828288E+06       533.422363
              888    114.94132E+06   -57.472356E+06   -57.472828E+06       75.6338196      344.828E+06      -104.166122
              889    114.94504E+06   -57.471832E+06   -57.471744E+06      -212.025452   344.828992E+06      -451.961151
              890   114.945512E+06   -57.469188E+06   -57.470764E+06       56.8644066      344.828E+06       26.8489017
              891   114.941632E+06   -57.472344E+06   -57.472548E+06      -636.478394   344.827552E+06      -236.540436
              892    114.94492E+06    -57.46868E+06   -57.469208E+06      -557.084229   344.827328E+06      -44.4365578
              893   114.943328E+06   -57.470692E+06   -57.470704E+06       23.4304600      344.828E+06       94.3226624
              894   114.940872E+06   -57.471748E+06   -57.472312E+06      -430.761627   344.827136E+06      -108.045158
              895   114.942952E+06   -57.470672E+06   -57.470764E+06      -281.037811    344.82784E+06      -315.836792
              896   114.945312E+06   -57.467788E+06   -57.467728E+06      -454.078644   344.827712E+06       630.195801
              897    114.94172E+06   -57.470568E+06    -57.47104E+06      -704.350342    344.82704E+06       250.721542
              898   114.946416E+06   -57.470524E+06   -57.471152E+06       208.454590   344.827776E+06      -819.386597
              899    114.94384E+06   -57.470224E+06   -57.469312E+06      -357.095306   344.828448E+06      -118.288155
              900   114.941136E+06   -57.473584E+06   -57.475428E+06   1.61458252E+03   344.828928E+06      -576.071838
              901    114.94392E+06   -57.472232E+06   -57.469152E+06       801.338623      344.828E+06       109.544914
              902    114.94256E+06   -57.471816E+06     -57.4719E+06      -335.894257   344.827872E+06      -604.718384
              903   114.941288E+06   -57.472916E+06   -57.473424E+06      -422.506073   344.828256E+06      -119.626694
              904   114.941416E+06   -57.473008E+06   -57.473148E+06      -110.829300   344.828512E+06      -7.44665241
              905    114.94156E+06   -57.472492E+06   -57.472384E+06  -1.08732458E+03   344.828928E+06      -485.822479
              906     114.9434E+06   -57.471448E+06   -57.471348E+06       36.5408287   344.828768E+06      -116.742340
              907   114.940408E+06   -57.473288E+06    -57.47358E+06       363.429993   344.828384E+06      -8.91765118
              908    114.93828E+06   -57.475288E+06   -57.475328E+06       130.833588   344.828928E+06       179.154434
              909   114.949568E+06   -57.464212E+06   -57.464548E+06       38.2314568   344.826048E+06       224.286423
              910     114.9424E+06    -57.47066E+06    -57.47054E+06      -22.9483471   344.828224E+06       159.487076
              911   114.936376E+06   -57.478276E+06    -57.48054E+06       130.523697   344.828192E+06       376.661713
              912   114.944368E+06   -57.469372E+06   -57.470036E+06       48.5136032   344.827808E+06       141.570755
              913   114.951568E+06   -57.457648E+06   -57.457136E+06       581.195801   344.821472E+06       647.068787
              914   114.941088E+06   -57.472812E+06   -57.473152E+06       107.300552   344.828416E+06      -197.785156
              915   114.942408E+06   -57.472016E+06   -57.472256E+06      -209.679367      344.828E+06      -143.254944
              916   114.944104E+06   -57.470868E+06     -57.4711E+06      -222.229980   344.827712E+06       50.5298843
              917     114.9808E+06   -57.441192E+06   -57.441452E+06   1.39879138E+03   344.828992E+06      -497.619568
              918      114.955E+06   -57.458572E+06   -57.457832E+06      -134.397583   344.825888E+06  -1.23564771E+03
              919   114.964392E+06   -57.450708E+06   -57.454208E+06   3.95773047E+03    344.82576E+06       403.876434
              920   114.947184E+06   -57.464116E+06   -57.468608E+06      -418.253906   344.826464E+06      -927.033142
              921   114.945328E+06   -57.469112E+06   -57.468372E+06       25.6306591   344.828384E+06  -1.27288538E+03
              922   114.939976E+06   -57.475444E+06   -57.474292E+06       779.008240   344.828704E+06       68.6651611
              923   114.933856E+06   -57.482264E+06   -57.480412E+06      -555.209595   344.829696E+06       134.328995
              924    114.94248E+06     -57.4708E+06   -57.472748E+06      -904.223633   344.827936E+06      -901.827148
              925   114.943592E+06   -57.468408E+06   -57.471832E+06      -748.651123   344.827168E+06      -15.1823053
              926   114.945056E+06   -57.469088E+06    -57.46832E+06      -265.625916    344.82752E+06       63.0863953
              927   114.945568E+06   -57.467788E+06   -57.467628E+06      -805.352661   344.827168E+06      -880.912598
              928   114.943264E+06   -57.471136E+06   -57.471448E+06      -244.404587   344.827392E+06       298.563782
              929   114.946664E+06     -57.4694E+06     -57.4678E+06       534.198975   344.828544E+06       152.508255
              930    114.93772E+06     -57.4754E+06   -57.475228E+06      -599.208679    344.82864E+06  -1.11464771E+03
              931   114.943568E+06   -57.471208E+06   -57.471328E+06      -215.905258   344.828992E+06  -1.02062665E+03
              932   114.946824E+06   -57.466084E+06   -57.466472E+06  -1.50687744E+03   344.825056E+06  -1.93916040E+03
              933      114.938E+06   -57.476092E+06    -57.47792E+06      -340.041412   344.828416E+06      -193.740555
              934    114.94548E+06   -57.468532E+06   -57.468728E+06       104.043869    344.82784E+06      -2.89781880
              935   114.945064E+06   -57.469708E+06    -57.46922E+06       242.944626   344.828096E+06       573.299622
              936   114.932336E+06   -57.480728E+06   -57.481596E+06      -247.857086   344.829056E+06       813.533447
              937   114.944504E+06   -57.471676E+06   -57.469848E+06       313.805115    344.82784E+06      -338.365753
              938   114.942712E+06   -57.470556E+06   -57.470472E+06      -173.755310   344.827744E+06      -156.707275
              939   114.942488E+06   -57.471488E+06   -57.471064E+06      -54.0488358   344.827776E+06       83.1027222
              940   114.943784E+06   -57.470424E+06   -57.470396E+06      -85.3546600   344.827904E+06      -101.242882
              941   114.942968E+06   -57.471516E+06   -57.471852E+06       161.436737      344.828E+06       17.1421528
              942   114.945032E+06   -57.470824E+06    -57.47004E+06      -145.462921   344.828288E+06      -43.0546722
              943   114.942176E+06   -57.471052E+06   -57.471076E+06      -125.979355   344.827616E+06      -96.6517944
              944   114.942648E+06   -57.471064E+06   -57.471004E+06      -45.6236420   344.827712E+06       9.11023521
              945    114.94324E+06   -57.470304E+06   -57.470212E+06       54.9500961   344.827776E+06       95.3150330
              946   114.942544E+06    -57.47122E+06   -57.470924E+06       76.2509842    344.82784E+06       160.725327
              947   114.943168E+06   -57.470588E+06    -57.47044E+06       28.2105999    344.82784E+06       60.0061188
              948   114.942664E+06   -57.471112E+06   -57.471044E+06      -16.7562485   344.827712E+06      -26.0254269
              949   114.942664E+06   -57.471168E+06      -57.471E+06       21.4427757   344.827808E+06       144.527252
              950   114.942552E+06    -57.46976E+06   -57.470396E+06      -339.436707    344.82816E+06       599.537903
              951   114.945808E+06    -57.46728E+06   -57.467168E+06      -810.233643    344.82688E+06       289.666168
              952   114.943224E+06   -57.470308E+06    -57.47028E+06      -259.711853    344.82784E+06      -272.053589
              953   114.941976E+06   -57.471568E+06   -57.471296E+06       45.0349197      344.828E+06      -157.615067
              954    114.94292E+06   -57.471432E+06   -57.470592E+06       131.590012   344.828128E+06      -83.8962326
              955   114.942856E+06   -57.470848E+06   -57.470548E+06      -7.16421032   344.827776E+06       101.099594
              956   114.942224E+06   -57.471652E+06   -57.471836E+06      -34.3479843   344.827872E+06       1.75332344
              957   114.942784E+06   -57.471124E+06   -57.471204E+06      -142.110031   344.828064E+06       155.579117
              958   114.940192E+06   -57.474764E+06   -57.474916E+06      -178.180099   344.829728E+06       703.428833
              959    114.94324E+06   -57.470592E+06   -57.470588E+06       14.6459303    344.82784E+06       79.7103271
              960   114.942448E+06   -57.471352E+06   -57.471288E+06       22.3808041   344.827872E+06      -37.5888405
              961   114.942944E+06   -57.470792E+06   -57.470652E+06       36.2627220   344.827808E+06       13.2216787
              962     114.9434E+06   -57.470636E+06   -57.470524E+06      -109.844757   344.827968E+06      -137.319061
              963   114.942288E+06   -57.471792E+06   -57.471784E+06      -128.632156   344.827808E+06      -176.218719
              964   114.942664E+06   -57.471132E+06   -57.471528E+06      -131.251282   344.827744E+06      -179.448395
              965   114.942472E+06    -57.47248E+06   -57.472884E+06      -311.780487   344.827904E+06      -65.6814957
              966   114.942824E+06   -57.471424E+06   -57.471196E+06      -115.355789   344.828128E+06      -7.63165379
              967     114.9422E+06     -57.4717E+06   -57.471772E+06       78.3305588   344.827872E+06      -78.8792267
              968   114.943392E+06   -57.471784E+06   -57.471252E+06       67.9130020   344.828096E+06       185.150558
              969   114.943168E+06   -57.470624E+06   -57.470712E+06      -4.47585917      344.828E+06       238.212372
              970   114.943136E+06   -57.470728E+06   -57.470608E+06       99.7700424   344.828032E+06      -12.0282106
              971   114.943992E+06   -57.470136E+06   -57.470372E+06       85.8831635    344.82768E+06       123.039856
              972   114.940616E+06   -57.473784E+06   -57.473712E+06       448.737518      344.828E+06       192.179565
              973   114.942728E+06    -57.47164E+06   -57.471736E+06       130.021652   344.828032E+06       39.9595299
              974    114.94264E+06    -57.47134E+06   -57.471456E+06       34.9717751      344.828E+06       64.5068817
              975   114.944152E+06   -57.469804E+06   -57.470196E+06       103.789368    344.82752E+06       251.823868
              976   114.944088E+06   -57.469248E+06   -57.468728E+06      -159.851074    344.82736E+06       430.722137
              977   114.937984E+06   -57.473756E+06   -57.473916E+06      -595.641968   344.827776E+06   1.50486316E+03
              978    114.94028E+06   -57.472188E+06   -57.472996E+06       301.804352   344.827488E+06      -400.354187
              979   114.942984E+06   -57.471228E+06    -57.47126E+06      -170.136032   344.827808E+06      -163.942383
              980   114.944432E+06   -57.470032E+06    -57.46962E+06       239.095123    344.82816E+06       504.777496
              981   114.937296E+06   -57.475452E+06   -57.475348E+06      -186.493591   344.828672E+06       402.678345
              982   114.942304E+06   -57.471404E+06    -57.47128E+06  -137.027204E-03   344.827872E+06      -113.763191
              983   114.947496E+06   -57.466316E+06    -57.46616E+06       270.342377   344.827264E+06       426.419189
              984   114.939288E+06   -57.471244E+06   -57.471772E+06      -160.197906   344.828672E+06       645.167847
              985   114.940328E+06     -57.4737E+06   -57.474644E+06      -165.008026   344.828544E+06       339.754547
              986   114.939152E+06   -57.474152E+06   -57.474824E+06      -458.621826   344.828736E+06       557.558472
              987    114.94308E+06   -57.470356E+06   -57.470604E+06      -49.5354614   344.828128E+06       130.252121
              988   114.943512E+06    -57.46902E+06     -57.4703E+06      -997.847900   344.827776E+06       826.588867
              989    114.94568E+06   -57.466704E+06   -57.467588E+06      -873.792419   344.827744E+06   1.04831921E+03
              990    114.94204E+06   -57.471532E+06   -57.471168E+06      -26.5175762   344.828032E+06      -233.955917
              991    114.94292E+06   -57.471152E+06   -57.470912E+06       76.8103027      344.828E+06       89.9514313
              992   114.942736E+06   -57.471264E+06   -57.471076E+06       139.488770   344.828064E+06      -52.3212433
              993   114.942512E+06   -57.471792E+06    -57.47196E+06       17.6027088      344.828E+06       8.20255280
              994   114.943768E+06   -57.470432E+06     -57.4705E+06       221.244431   344.828192E+06       160.313522
              995    114.96348E+06    -57.45376E+06   -57.454564E+06  -3.81758984E+03   344.824736E+06   1.03802686E+03
              996    114.94252E+06   -57.471128E+06   -57.471004E+06      -48.3504295   344.827744E+06      -27.7406750
              997   114.942704E+06   -57.470848E+06     -57.4712E+06      -58.6951103   344.827712E+06       22.4146080
              998      114.943E+06   -57.471312E+06   -57.471056E+06      -2.55154443    344.82832E+06      -142.965759
              999    114.94352E+06    -57.47068E+06    -57.47034E+06      -9.02436256   344.828032E+06      -203.813599
             1000   114.942608E+06   -57.471264E+06   -57.471332E+06       12.3946533    344.82832E+06       211.205460
             1001   114.942264E+06    -57.47192E+06   -57.471408E+06       104.323227   344.828256E+06      -80.3351440
             1002     114.9486E+06   -57.465716E+06   -57.465912E+06       163.223541    344.82688E+06      -83.5068283
             1003   114.942584E+06    -57.47148E+06   -57.471328E+06      -70.6581955      344.828E+06       171.432388
             1004   114.943656E+06   -57.470468E+06    -57.47028E+06       290.758759   344.827392E+06       93.5247803
             1005   114.944112E+06   -57.469984E+06   -57.470004E+06       53.2883034   344.827904E+06       88.6292572
             1006   114.945104E+06   -57.469356E+06   -57.468992E+06      -239.814453   344.827392E+06      -270.285431
             1007   114.943232E+06   -57.471468E+06   -57.471304E+06      -137.478195    344.82784E+06       45.2701378
             1008   114.869576E+06   -57.530156E+06   -57.528648E+06   5.50667480E+03   344.831584E+06   1.19412952E+03
             1009   114.944096E+06    -57.47044E+06    -57.46958E+06       83.2912445   344.828576E+06       237.573608
             1010   114.933808E+06    -57.47586E+06     -57.4758E+06      -684.824951   344.829152E+06  -1.27323230E+03
             1011    114.94612E+06   -57.468784E+06    -57.46652E+06       471.435913    344.82736E+06      -174.204147
             1012    114.94392E+06   -57.470192E+06    -57.46924E+06      -888.740234   344.827936E+06       872.608154
             1013   114.943136E+06   -57.470908E+06   -57.470204E+06       16.0301723   344.827904E+06      -119.797318
             1014   114.942848E+06    -57.47096E+06   -57.470764E+06      -241.292358   344.827808E+06      -102.981209
             1015   114.942264E+06    -57.47218E+06   -57.471892E+06       128.696381    344.82784E+06       207.764023
             1016     114.9434E+06   -57.470588E+06   -57.470452E+06      -127.980667   344.828064E+06       42.6254578
             1017   114.944616E+06    -57.46848E+06   -57.469328E+06       63.4366722   344.827744E+06       57.7769012
             1018   114.944136E+06   -57.470016E+06    -57.47024E+06      -335.894440   344.828064E+06      -108.740608
             1019    114.94268E+06   -57.471052E+06   -57.471064E+06      -87.9593430   344.827904E+06       78.1640930
             1020    114.94388E+06   -57.470284E+06   -57.470328E+06      -375.483490    344.82816E+06       49.4595795
             1021   114.942944E+06   -57.470792E+06   -57.470848E+06      -73.5650864   344.827808E+06       12.5381737
             1022    114.94188E+06   -57.471656E+06    -57.47166E+06      -275.855011   344.827968E+06      -36.9339981
             1023     114.9428E+06    -57.47162E+06   -57.471576E+06      -247.065369   344.828448E+06      -155.431534
             1024   114.943608E+06   -57.471056E+06    -57.47076E+06      -53.1512299   344.827936E+06       65.6418610
             1025   114.944152E+06   -57.470084E+06   -57.469844E+06      -39.9107552   344.828128E+06       49.5066986
             1026   114.944152E+06    -57.46986E+06    -57.46984E+06      -246.958252   344.827968E+06      -14.6631908
             1027    114.95888E+06   -57.454864E+06   -57.454804E+06  -2.52683984E+03   344.824064E+06       136.766678
             1028   114.941584E+06   -57.473432E+06   -57.471448E+06      -635.175476   344.829024E+06      -680.316528
             1029   114.942744E+06    -57.47134E+06   -57.470852E+06       24.4914246   344.828032E+06       35.8183098
             1030   114.942416E+06   -57.471264E+06    -57.47122E+06       40.2473259   344.827872E+06       223.802933
             1031   114.943504E+06   -57.470152E+06   -57.469796E+06       129.060852      344.828E+06       115.767227
             1032   114.943024E+06   -57.470792E+06   -57.470348E+06       165.114471   344.828032E+06       172.742645
             1033   114.943944E+06    -57.46996E+06   -57.469744E+06       5.95389605   344.827904E+06       122.786728
             1034   114.942768E+06     -57.4708E+06   -57.470876E+06      -7.10863209   344.827808E+06       23.6834278
             1035   114.942912E+06   -57.470748E+06   -57.471088E+06      -27.2404613   344.827744E+06      -43.6212234
             1036   114.943576E+06   -57.469416E+06   -57.469796E+06      -493.710632    344.82768E+06       31.1914482
             1037   114.940264E+06    -57.47328E+06   -57.473036E+06      -218.653152   344.828256E+06      -20.0552387
             1038   114.935888E+06   -57.478204E+06    -57.47622E+06   1.09362109E+03   344.830688E+06       283.315704
             1039   114.946944E+06    -57.46658E+06   -57.466624E+06   1.29937463E+03   344.828192E+06   1.08706665E+03
             1040   114.937096E+06   -57.476532E+06   -57.476372E+06      -806.017700    344.82848E+06      -123.995911
             1041   114.945592E+06   -57.469252E+06   -57.468996E+06       779.540649   344.829568E+06       565.140808
             1042    114.93988E+06   -57.474324E+06    -57.47398E+06  -1.04355774E+03   344.828128E+06      -70.0531082
             1043   114.946792E+06   -57.467164E+06   -57.466676E+06   1.55665198E+03   344.828704E+06   1.04202161E+03
             1044   114.936616E+06   -57.477792E+06   -57.476012E+06  -1.18631946E+03   344.831488E+06       600.668457
             1045   114.941808E+06   -57.473064E+06   -57.472444E+06  -2.02123755E+03   344.829824E+06       433.199768
             1046   114.940544E+06   -57.472764E+06    -57.47232E+06      -612.029846    344.82848E+06      -263.145111
             1047   114.943432E+06   -57.469756E+06   -57.468428E+06      -465.287476    344.82832E+06      -77.3458328
             1048   114.942584E+06    -57.47164E+06   -57.471732E+06      -655.878601    344.82688E+06      -706.620911
             1049   114.984696E+06    -57.43598E+06   -57.438096E+06  -4.31521777E+03   344.822336E+06       123.074287
             1050   114.945736E+06   -57.467944E+06   -57.467204E+06      -544.468506   344.828064E+06      -122.951393
             1051   114.936368E+06   -57.477856E+06   -57.476488E+06  -1.67434106E+03   344.828128E+06  -1.10094495E+03
             1052   114.942728E+06   -57.470992E+06   -57.470952E+06      -17.8391151   344.827712E+06       12.9554243
             1053   114.941544E+06    -57.47244E+06   -57.472916E+06      -35.7961884   344.828288E+06       202.000320
             1054   114.943056E+06   -57.470484E+06    -57.47004E+06       85.0667953   344.827904E+06       259.451263
             1055   114.939864E+06   -57.473868E+06   -57.474252E+06      -207.196548   344.828832E+06       292.582672
             1056   114.943944E+06   -57.470624E+06   -57.470384E+06      -132.385101   344.827712E+06      -221.616852
             1057   114.942792E+06   -57.471212E+06   -57.470944E+06       24.1013565   344.827936E+06       69.5634766
             1058   114.944288E+06   -57.469708E+06   -57.469428E+06       158.270309    344.82784E+06      -93.2197723
             1059   114.942808E+06   -57.471092E+06   -57.471356E+06       5.16393614   344.828096E+06       216.537659
             1060   114.942272E+06   -57.471684E+06      -57.472E+06      -17.2678413   344.828192E+06       246.094818
             1061   114.942152E+06   -57.471524E+06   -57.471292E+06      -92.3717270   344.827936E+06      -310.483612
             1062    114.94208E+06   -57.470656E+06   -57.471764E+06       742.072632   344.827424E+06       332.273956
             1063   114.937864E+06   -57.475772E+06    -57.47476E+06      -118.897446    344.82944E+06       58.9972839
             1064    114.94048E+06    -57.47234E+06   -57.472288E+06       240.780487   344.827072E+06      -71.9110184
             1065   114.947344E+06   -57.467044E+06   -57.466204E+06       264.997925   344.826752E+06       6.60324144
             1066   114.929648E+06    -57.48504E+06   -57.482996E+06   1.87645251E+03   344.830368E+06      -522.718018
             1067    114.94056E+06   -57.472932E+06   -57.472772E+06      -101.562920   344.828384E+06      -527.839905
             1068     114.9424E+06    -57.47144E+06   -57.471188E+06       71.1165848   344.827904E+06       143.679062
             1069   114.941488E+06      -57.472E+06    -57.47172E+06      -127.864342   344.827584E+06       76.2278061
             1070   114.942392E+06   -57.471264E+06   -57.470884E+06       27.7379608   344.827872E+06       143.736420
             1071   114.942176E+06   -57.471604E+06    -57.47108E+06       117.220390   344.828256E+06       111.715157
             1072   114.943408E+06   -57.470488E+06    -57.47006E+06       36.2580299   344.828096E+06       227.244492
             1073    114.94444E+06   -57.467492E+06   -57.468192E+06      -542.102234   344.826656E+06       690.147339
             1074   114.938656E+06   -57.475084E+06   -57.474412E+06       676.989807   344.828192E+06       312.875732
             1075   114.943976E+06   -57.469712E+06   -57.469656E+06       30.0184708   344.827936E+06       278.331787
             1076    114.94328E+06   -57.470756E+06   -57.470792E+06       151.569580   344.827872E+06      -2.37827277
             1077   114.942856E+06   -57.469392E+06   -57.470264E+06      -226.141617   344.828224E+06       525.855225
             1078      114.942E+06    -57.47118E+06    -57.47152E+06      -414.857910   344.828256E+06   1.50724377E+03
             1079    114.94172E+06   -57.471352E+06   -57.471016E+06       638.149902   344.827744E+06       27.0571442
             1080   114.943128E+06      -57.471E+06    -57.47054E+06      -8.31856441   344.827776E+06       91.5658417
             1081    114.93844E+06   -57.472304E+06    -57.47378E+06       32.9637260   344.827392E+06      -523.801392
             1082   114.943456E+06   -57.470132E+06     -57.4708E+06      -648.538879   344.827008E+06       49.5942039
             1083   114.942912E+06   -57.472084E+06    -57.47314E+06       575.972168   344.828384E+06       368.221649
             1084   114.940536E+06   -57.472444E+06    -57.47206E+06      -367.673431     344.8272E+06       181.592499
             1085   114.942792E+06   -57.471432E+06     -57.4714E+06      -62.0928116   344.827648E+06      -159.985657
             1086    114.94236E+06   -57.468764E+06   -57.473588E+06   1.94240381E+03     344.8288E+06       3.27013230
             1087   114.954416E+06   -57.464528E+06    -57.46182E+06       869.275818   344.830144E+06       862.627747
             1088     114.9326E+06   -57.482464E+06    -57.48256E+06  -1.35156323E+03   344.830496E+06      -547.428345
             1089   114.941224E+06   -57.472844E+06     -57.4727E+06      -256.580231   344.827936E+06      -33.5859985
             1090   114.948192E+06   -57.467128E+06   -57.466608E+06       87.5793076   344.827552E+06      -33.5570946
             1091   114.936176E+06   -57.475468E+06   -57.476152E+06  -1.56459070E+03   344.825952E+06       247.025528
             1092   114.943256E+06    -57.47108E+06   -57.470844E+06      -218.742340   344.827712E+06      -95.7511139
             1093   114.941592E+06     -57.4726E+06   -57.471828E+06       793.087036   344.827456E+06       545.089111
             1094   114.942416E+06   -57.471364E+06   -57.471508E+06       200.856613    344.82768E+06       74.1620407
             1095   114.942704E+06   -57.471248E+06   -57.470792E+06      -161.584015   344.828032E+06      -263.439667
             1096   114.943704E+06   -57.469476E+06   -57.469204E+06       204.412689   344.827488E+06      -234.541931
             1097   114.942912E+06   -57.469848E+06   -57.469812E+06      -182.972717    344.82784E+06      -367.351135
             1098   114.942672E+06    -57.47134E+06    -57.47108E+06       20.3126144   344.827968E+06       76.8996277
             1099   114.944112E+06   -57.469752E+06   -57.469616E+06      -142.586975   344.827488E+06      -3.27826309
             1100   114.945456E+06   -57.468676E+06   -57.470892E+06       377.045563   344.827744E+06       6.95777559
             1101   114.943784E+06   -57.470036E+06    -57.47008E+06      -187.050674   344.827424E+06      -32.2783890
             1102   114.943456E+06    -57.47132E+06   -57.471152E+06      -149.841827   344.827776E+06       21.6411533
             1103   114.939824E+06    -57.47566E+06   -57.477124E+06      -702.135193   344.827904E+06      -934.458008
             1104   114.942368E+06   -57.472184E+06   -57.473224E+06      -654.747986   344.828224E+06      -589.377197
             1105   114.929616E+06   -57.482624E+06   -57.483252E+06       212.729752   344.828576E+06      -427.140656
             1106   114.942552E+06   -57.469932E+06   -57.470396E+06      -307.434845   344.827392E+06      -655.809998
             1107   114.942368E+06   -57.473712E+06   -57.473836E+06       34.5550117   344.828896E+06      -908.544495
             1108   114.942816E+06    -57.47116E+06   -57.471256E+06       93.3022995    344.82784E+06      -9.56797409
             1109    114.94272E+06   -57.471184E+06   -57.471512E+06       113.337189      344.828E+06      -235.050766
             1110    114.94188E+06   -57.472336E+06   -57.472644E+06       65.2096710   344.828064E+06      -390.534363
             1111   114.945664E+06   -57.469308E+06   -57.468696E+06       237.396210   344.828768E+06       61.5142708
             1112   114.934448E+06   -57.478244E+06    -57.47658E+06   3.65795142E+03    344.82848E+06       598.393250
             1113    114.94172E+06   -57.464988E+06   -57.468424E+06   1.86753174E+03   344.826848E+06      -33.0866737
             1114   114.938728E+06   -57.475524E+06    -57.47594E+06   1.60691016E+03   344.828896E+06      -628.282593
             1115   114.887176E+06   -57.513448E+06   -57.515348E+06   4.84980566E+03   344.826624E+06       497.570801
             1116   114.945464E+06    -57.46778E+06   -57.468388E+06   3.13813647E+03    344.82864E+06       110.399864
             1117   114.957392E+06   -57.456164E+06    -57.45606E+06   2.98572363E+03   344.826784E+06       356.787933
             1118   114.950472E+06   -57.465452E+06   -57.466656E+06  -2.63827197E+03   344.827936E+06       280.956635
             1119     114.9388E+06   -57.472584E+06   -57.471932E+06       337.251160   344.827168E+06       137.908859
             1120   114.956064E+06     -57.4613E+06   -57.461332E+06   2.11867383E+03   344.831584E+06      -687.441833
             1121   114.942968E+06   -57.469944E+06   -57.470452E+06      -764.678650   344.827968E+06  -1.04784338E+03
             1122   114.917632E+06   -57.493176E+06    -57.49296E+06       495.645569    344.83344E+06      -662.980164
             1123   114.941056E+06     -57.4729E+06    -57.47296E+06  -1.06977271E+03   344.828128E+06      -459.701752
             1124   114.941704E+06   -57.471008E+06    -57.47108E+06      -274.547180    344.82832E+06       107.729889
             1125   114.955648E+06   -57.460592E+06   -57.459728E+06      -759.530762   344.825696E+06       305.235260
             1126   115.047816E+06   -57.381908E+06   -57.384448E+06   5.13866211E+03   344.815872E+06   1.04341479E+03
             1127   114.941288E+06   -57.473028E+06   -57.473332E+06      -152.563889    344.82832E+06       918.223083
             1128   114.939328E+06   -57.472752E+06   -57.471324E+06       840.752869    344.82976E+06      -896.002014
             1129   114.925888E+06   -57.485484E+06   -57.485348E+06       303.325684   344.828448E+06   1.21186414E+03
             1130   114.932696E+06   -57.479528E+06   -57.479304E+06      -438.884430   344.828544E+06       878.848511
             1131   114.941104E+06   -57.470988E+06   -57.470588E+06      -264.288574   344.825024E+06       855.707275
             1132   114.898592E+06    -57.50928E+06   -57.507956E+06  -5.23238965E+03   344.831904E+06       228.176270
             1133   114.942288E+06   -57.469656E+06   -57.470236E+06       61.9159927   344.827488E+06      -123.404976
             1134   114.943784E+06   -57.465252E+06   -57.465784E+06   1.39074744E+03   344.826688E+06      -58.8880768
             1135   114.942128E+06   -57.469016E+06   -57.469116E+06  -2.17785840E+03   344.828128E+06      -867.455322
             1136   114.942704E+06   -57.471248E+06   -57.470548E+06      -15.4098549   344.827616E+06      -35.1240578
             1137    114.94292E+06   -57.470988E+06   -57.470964E+06       37.6380081   344.827808E+06      -121.830803
             1138   114.943368E+06   -57.470748E+06   -57.470476E+06       213.687012   344.828192E+06      -133.790405
             1139   114.943856E+06   -57.470612E+06   -57.470924E+06      -883.797424      344.828E+06       60.7799606
             1140   114.942528E+06   -57.471452E+06   -57.471888E+06      -2.45792580   344.827648E+06      -78.4848175
             1141   114.942488E+06   -57.471524E+06     -57.4716E+06      -114.948425    344.82768E+06      -50.6925278
             1142   114.943328E+06   -57.470376E+06   -57.470472E+06       1.46154559   344.827744E+06      -456.577789
             1143   114.943352E+06   -57.470644E+06   -57.471004E+06       239.180328   344.827904E+06       4.77060080
             1144   114.943328E+06    -57.47064E+06   -57.471236E+06      -113.401756      344.828E+06      -208.056595
             1145   114.943808E+06   -57.470048E+06     -57.4702E+06      -5.65068436   344.827904E+06      -115.201561
             1146   114.942288E+06     -57.4692E+06   -57.469072E+06  -1.39130591E+03   344.826464E+06      -428.277435
             1147   114.941616E+06   -57.472092E+06   -57.472232E+06      -55.2144699   344.827776E+06      -183.981873
             1148   114.953144E+06   -57.461488E+06   -57.463672E+06   2.54526831E+03    344.82832E+06       713.881775
             1149    114.96836E+06   -57.452312E+06   -57.452628E+06  -5.04207910E+03    344.82816E+06      -471.713013
             1150   114.951272E+06   -57.466488E+06   -57.465584E+06       309.377228   344.829888E+06      -8.86628723
             1151   114.965376E+06   -57.455264E+06   -57.453708E+06  -1.04810913E+03   344.830592E+06       436.252197
             1152    114.93604E+06   -57.473156E+06    -57.47636E+06   2.38168506E+03   344.827712E+06       470.949188
             1153   114.941648E+06   -57.469556E+06    -57.46956E+06   1.07376697E+03   344.828736E+06   1.53419727E+03
             1154    114.94908E+06     -57.4657E+06    -57.46444E+06      -101.290047   344.828448E+06       663.909119
             1155   114.942392E+06   -57.470676E+06   -57.470508E+06       263.100464   344.827648E+06      -150.823029
             1156   114.942448E+06   -57.472504E+06   -57.472172E+06      -58.4681969   344.828352E+06       285.179840
             1157   114.940656E+06   -57.472728E+06   -57.472428E+06       917.900574   344.827392E+06       157.819046
             1158    114.94552E+06   -57.466376E+06   -57.466628E+06       -813.96875   344.826912E+06       596.171753
             1159   114.941936E+06   -57.471924E+06   -57.472036E+06       32.0021362   344.828064E+06      -26.7630024
             1160    114.94168E+06   -57.472568E+06   -57.472348E+06      -100.216393   344.827968E+06      -195.780930
             1161   114.941232E+06   -57.472688E+06   -57.472096E+06      -354.607117   344.827904E+06       695.726196
             1162   114.955128E+06   -57.458116E+06   -57.457292E+06      -544.879761    344.82832E+06       995.163818
             1163   114.936072E+06   -57.474476E+06   -57.473028E+06   1.94312244E+03     344.8264E+06      -53.9492569
             1164    114.96184E+06   -57.453904E+06   -57.452284E+06   5.95040430E+03   344.827168E+06      -816.175720
             1165   114.943864E+06   -57.471664E+06   -57.470972E+06      -230.519791   344.827904E+06      -111.437546
             1166   114.947096E+06   -57.467016E+06   -57.466184E+06       140.579453    344.82768E+06      -503.008301
             1167   114.947176E+06   -57.465188E+06   -57.465552E+06      -228.097427   344.828384E+06      -966.381714
             1168   114.946288E+06    -57.46806E+06   -57.467404E+06       145.251419   344.827776E+06      -616.671509
             1169   114.942696E+06   -57.471324E+06   -57.471676E+06      -323.199615   344.828064E+06      -85.7634506
             1170   114.942272E+06    -57.47128E+06   -57.471052E+06      -28.9527035    344.82768E+06      -77.7326279
             1171    114.94356E+06   -57.469812E+06   -57.469308E+06      -2.61103606   344.827392E+06      -35.3914948
             1172   114.944544E+06   -57.469748E+06   -57.469416E+06       253.730331    344.82736E+06       261.444550
             1173   114.942976E+06   -57.470652E+06    -57.47046E+06      -65.2752686    344.82752E+06      -201.499619
             1174   114.943328E+06    -57.47094E+06   -57.470852E+06       137.594238      344.828E+06       23.4682178
             1175   114.941552E+06   -57.472024E+06   -57.471488E+06       44.9200478   344.827712E+06      -56.0029068
             1176   114.942016E+06   -57.472604E+06    -57.47302E+06       5.94110298   344.828288E+06      -523.020752
             1177   114.939184E+06   -57.474636E+06    -57.47452E+06      -327.659485   344.828416E+06       141.063171
             1178    114.94252E+06   -57.471456E+06   -57.471304E+06      -37.5808945   344.827968E+06       10.0646124
             1179   114.946688E+06   -57.468256E+06   -57.466236E+06  -2.12009644E+03   344.829248E+06      -282.015289
             1180    114.94092E+06   -57.472956E+06    -57.47144E+06      -850.578003   344.828384E+06       139.584747
             1181   114.935464E+06     -57.4783E+06     -57.4792E+06   1.29883301E+03   344.827616E+06       828.756226
             1182   114.940464E+06   -57.473104E+06   -57.474084E+06   1.11372559E+03   344.827904E+06       881.418823
             1183   114.942016E+06   -57.472712E+06     -57.4712E+06   2.00922449E+03    344.82736E+06       590.970337
             1184   114.940272E+06    -57.47392E+06     -57.4736E+06       305.731964   344.828192E+06       102.063141
             1185   114.938864E+06   -57.476308E+06    -57.47426E+06       241.443924    344.82896E+06      -695.114197
             1186   114.943176E+06   -57.470496E+06     -57.4706E+06      -115.226585   344.827648E+06       15.5899353
             1187   114.943744E+06   -57.470088E+06   -57.470144E+06       107.061134   344.827872E+06      -112.111389
             1188   114.943896E+06   -57.469548E+06   -57.469424E+06      -41.0335426   344.827808E+06      -509.111023
             1189   114.942896E+06   -57.470688E+06    -57.47114E+06      -94.4423676   344.827424E+06      -185.008926
             1190   114.944512E+06   -57.469592E+06   -57.469764E+06       18.6308937    344.82816E+06      -151.117798
             1191   114.944072E+06   -57.469828E+06   -57.469812E+06      -153.126648   344.827456E+06      -56.5349464
             1192   114.943088E+06   -57.470752E+06     -57.4707E+06       110.481087   344.827552E+06      -59.2168655
             1193   114.942512E+06   -57.471552E+06    -57.47144E+06       18.4207478   344.828032E+06      -113.716743
             1194   114.942896E+06   -57.471752E+06    -57.47136E+06      -17.3088837   344.828352E+06       1.42501247
             1195    114.94364E+06   -57.470556E+06   -57.470812E+06       376.247284   344.827264E+06       326.001465
             1196   114.926864E+06    -57.48658E+06   -57.484072E+06       811.137512   344.827616E+06      -288.468781
             1197    114.92624E+06   -57.482856E+06   -57.483164E+06  -1.58307874E+03   344.826368E+06      -192.719101
             1198   114.942592E+06   -57.470608E+06   -57.471104E+06      -286.820923   344.827968E+06      -628.875793
             1199   114.954032E+06     -57.4607E+06     -57.4613E+06       56.8429909   344.826208E+06      -61.0156822
             1200   114.947568E+06    -57.46512E+06   -57.465764E+06      -562.263672   344.826496E+06      -743.244995
             1201   114.950856E+06   -57.463544E+06   -57.463732E+06       159.487778   344.825664E+06      -566.083191
             1202    114.92888E+06   -57.482456E+06   -57.483752E+06  -2.07283521E+03   344.827616E+06       286.086273
             1203   114.944952E+06   -57.469076E+06   -57.469136E+06      -218.458771   344.827328E+06      -68.5175095
             1204   114.946184E+06     -57.4672E+06   -57.467912E+06      -692.199707   344.827264E+06       491.618439
             1205    114.95084E+06   -57.464448E+06   -57.465428E+06      -388.752350    344.82688E+06       17.7761269
             1206    114.94388E+06   -57.470024E+06    -57.46988E+06      -10.8253050   344.827712E+06       23.2369099
             1207   114.943896E+06   -57.469988E+06    -57.46998E+06      -182.777008   344.827744E+06       107.012222
             1208    114.94124E+06   -57.471512E+06    -57.47184E+06      -99.9642334   344.827296E+06      -539.400696
             1209   114.942408E+06   -57.471264E+06    -57.47108E+06      -138.295532   344.827648E+06      -63.4989243
             1210   114.942664E+06    -57.47154E+06   -57.471584E+06      -103.934090    344.82768E+06      -147.678406
             1211   114.941544E+06    -57.47204E+06   -57.472136E+06       181.759689   344.828096E+06      -57.6232452
             1212   114.948888E+06   -57.456308E+06   -57.459592E+06  -4.47982373E+03   344.821376E+06      -871.049500
             1213   114.945072E+06    -57.46786E+06   -57.470088E+06       640.096863   344.828096E+06       85.0286407
             1214    114.94252E+06    -57.47168E+06     -57.4714E+06       11.9211121   344.827776E+06      -107.603859
             1215   114.942168E+06    -57.47174E+06   -57.471352E+06      -112.681068   344.827648E+06      -136.814606
             1216   114.942136E+06   -57.472384E+06   -57.472252E+06      -639.788391   344.827712E+06      -230.300293
             1217   114.943288E+06   -57.470664E+06   -57.470668E+06      -65.1369400   344.827712E+06       59.3717995
             1218   114.943216E+06   -57.471448E+06   -57.470896E+06      -215.278870   344.828096E+06      -371.917999
             1219   114.943152E+06     -57.4708E+06   -57.470764E+06      -164.445465   344.827488E+06      -79.8973083
             1220     114.9424E+06   -57.471476E+06    -57.47146E+06      -349.851318   344.827776E+06      -353.612274
             1221   114.942896E+06   -57.470792E+06   -57.470864E+06      -214.998062   344.827712E+06      -354.403870
             1222   114.942664E+06    -57.47112E+06   -57.471032E+06       13.2830896   344.827744E+06       8.91718578
             1223   114.944432E+06     -57.4701E+06   -57.470132E+06      -44.4635239   344.828288E+06      -136.797821
             1224   114.942944E+06   -57.471108E+06   -57.471096E+06      -89.7789764   344.827968E+06      -89.1662521
             1225   114.942408E+06   -57.471596E+06    -57.47166E+06      -136.060928   344.827904E+06      -141.083649
             1226   114.942888E+06   -57.470848E+06   -57.470736E+06       1.15733147   344.827744E+06      -23.2097454
             1227   114.942528E+06   -57.471296E+06   -57.470836E+06      -35.2623558   344.827936E+06      -83.9928970
             1228    114.94796E+06    -57.47214E+06    -57.47172E+06       136.632065   344.832096E+06      -145.325500
             1229   114.947296E+06   -57.466304E+06   -57.464952E+06      -409.985382    344.82784E+06      -80.7816620
             1230    114.94308E+06    -57.47082E+06   -57.472092E+06      -212.208374    344.82752E+06      -678.895996
             1231    114.95612E+06   -57.462544E+06   -57.460604E+06   1.78795618E+03   344.826272E+06       280.774384
             1232   114.953696E+06   -57.459788E+06   -57.458652E+06  -1.72410095E+03   344.826304E+06  -2.14194336E+03
             1233   114.943072E+06   -57.471024E+06     -57.4709E+06      -100.535538   344.827744E+06      -238.392609
             1234   114.940536E+06   -57.473352E+06   -57.472964E+06       297.968628   344.827936E+06       182.712585
             1235   114.936256E+06   -57.479796E+06   -57.479576E+06       777.704529   344.829568E+06       655.688354
             1236   114.947504E+06    -57.46502E+06   -57.466188E+06      -611.335083   344.827456E+06   1.13495825E+03
             1237    114.94616E+06   -57.468664E+06   -57.467428E+06       686.254639   344.827648E+06       44.4284248
             1238    114.94104E+06   -57.474992E+06   -57.475536E+06       310.621582   344.828224E+06       846.124023
             1239   114.944488E+06    -57.47126E+06   -57.470332E+06      -119.654846   344.828576E+06       55.5268593
             1240   114.942752E+06   -57.471148E+06   -57.470364E+06       102.406830   344.827744E+06       123.132202
             1241   114.942696E+06   -57.471012E+06   -57.470748E+06      -162.973816   344.827776E+06       23.4865685
             1242   114.941328E+06   -57.472248E+06   -57.472044E+06       207.237442   344.827648E+06       287.521393
             1243   114.958232E+06   -57.453472E+06   -57.454904E+06   1.36712781E+03    344.82656E+06   1.45361230E+03
             1244   114.952392E+06   -57.463608E+06   -57.462952E+06   2.03070935E+03   344.828608E+06       713.981995
             1245   114.940312E+06    -57.47464E+06   -57.473912E+06       950.652832   344.829024E+06      -248.806122
             1246   114.943584E+06    -57.46942E+06   -57.470288E+06  -1.11606958E+03   344.827424E+06       146.270950
             1247   114.928936E+06   -57.482648E+06   -57.482376E+06   1.97926135E+03    344.83008E+06   1.07110608E+03
             1248   114.957632E+06   -57.454256E+06   -57.454576E+06      -985.585815   344.822496E+06       54.6843224
             1249    114.94252E+06   -57.471692E+06   -57.471536E+06      -114.740707    344.82752E+06      -334.541168
             1250   114.942112E+06   -57.472332E+06   -57.472276E+06       306.151062   344.828608E+06       333.076202
             1251   114.943008E+06   -57.471036E+06   -57.470928E+06       440.913147   344.827424E+06       279.760712
             1252   114.938296E+06   -57.477016E+06   -57.478128E+06      -464.707367   344.828256E+06      -337.092957
             1253   114.943632E+06   -57.470312E+06   -57.470536E+06       36.0518684   344.828032E+06      -92.4892578
             1254    114.94588E+06   -57.467728E+06   -57.468212E+06      -722.638184    344.82736E+06      -222.726563
             1255   114.942072E+06    -57.47158E+06   -57.471484E+06      -101.607002   344.827776E+06      -274.210968
             1256   114.954688E+06   -57.458592E+06   -57.457124E+06   3.33218677E+03   344.826176E+06       899.072937
             1257   114.976136E+06    -57.44124E+06   -57.443056E+06  -3.35402734E+03   344.822624E+06       744.112610
             1258   114.938056E+06   -57.476616E+06    -57.47682E+06      -462.173584   344.828928E+06      -391.139343
             1259    114.94196E+06   -57.471944E+06   -57.471864E+06      -146.785568   344.827904E+06      -164.120346
             1260    114.94284E+06     -57.4709E+06   -57.470756E+06      -63.6907768   344.827648E+06      -5.68048048
             1261   114.961152E+06   -57.457384E+06   -57.458272E+06  -2.38015015E+03   344.827232E+06      -356.068298
             1262   114.945776E+06   -57.469116E+06    -57.46864E+06      -525.919800   344.827936E+06      -334.042084
             1263   114.945576E+06   -57.468664E+06   -57.468416E+06      -151.372482    344.82752E+06      -281.632751
             1264   114.943208E+06    -57.47072E+06   -57.470504E+06      -9.17952633   344.827712E+06       29.8278904
             1265   114.942992E+06    -57.47066E+06   -57.470672E+06      -79.9357605   344.827776E+06       25.1280212
             1266   114.942488E+06   -57.471232E+06   -57.470908E+06      -10.7695293    344.82768E+06       61.5298767
             1267    114.93968E+06   -57.473548E+06   -57.475448E+06       30.2523613   344.827488E+06      -333.796631
             1268   114.941416E+06   -57.473076E+06   -57.473016E+06      -460.867920    344.82768E+06      -330.484650
             1269   114.941016E+06   -57.473168E+06   -57.472696E+06       182.729767    344.82912E+06       520.103271
             1270   114.943136E+06   -57.470504E+06    -57.47142E+06  -1.05788989E+03    344.82704E+06       784.520508
             1271   114.951848E+06   -57.460464E+06    -57.46326E+06   1.64383875E+03   344.827008E+06       816.569885
             1272   114.949536E+06   -57.461656E+06   -57.463272E+06       461.356964   344.826368E+06      -638.952148
             1273   114.944536E+06   -57.468464E+06    -57.46904E+06       295.494141   344.827424E+06       272.290070
             1274   114.943664E+06   -57.469552E+06   -57.469896E+06       26.5253105   344.827456E+06       250.394119
             1275   114.944192E+06    -57.46702E+06   -57.469344E+06       410.737579   344.827168E+06       844.882813
             1276   114.941264E+06   -57.472752E+06   -57.472112E+06      -137.581085   344.828192E+06      -65.6268463
             1277   114.942984E+06     -57.4704E+06   -57.470288E+06       185.069138    344.82784E+06      -154.359558
             1278   114.944312E+06   -57.468612E+06   -57.468664E+06      -480.349365   344.827616E+06      -932.576660
             1279   114.953896E+06   -57.455604E+06    -57.45688E+06   1.51495276E+03   344.825024E+06       910.657532
             1280   114.920152E+06   -57.485796E+06   -57.485644E+06   4.16045508E+03    344.82752E+06       769.074463
             1281    114.94672E+06   -57.467328E+06   -57.467432E+06      -191.310867   344.826528E+06       19.8872757
             1282   114.942232E+06    -57.47144E+06   -57.471276E+06      -18.3317719   344.827776E+06      -44.2943916
             1283   114.944816E+06   -57.470212E+06   -57.470032E+06  -1.92232581E+03   344.828352E+06  -1.62665051E+03
             1284   114.942744E+06    -57.47108E+06   -57.470588E+06      -482.528748    344.82848E+06      -189.115311
             1285   114.945736E+06   -57.467912E+06   -57.468436E+06      -813.858093    344.82848E+06      -952.610779
             1286   114.940208E+06    -57.47574E+06     -57.4755E+06       224.689972    344.82848E+06   1.30518274E+03
             1287    114.95212E+06   -57.461432E+06   -57.460224E+06  -1.61536890E+03   344.826496E+06  -2.20747510E+03
             1288   114.942112E+06   -57.471632E+06   -57.471588E+06      -47.5693893      344.828E+06       145.803253
             1289   114.964264E+06    -57.45362E+06   -57.455288E+06   1.36788147E+03   344.823776E+06       680.884155
             1290   114.948544E+06   -57.469444E+06    -57.46688E+06  -1.10143958E+03   344.828192E+06       725.352295
             1291   114.949344E+06   -57.466036E+06    -57.46744E+06      -317.703827   344.829632E+06   1.42243762E+03
             1292   114.946528E+06   -57.469896E+06   -57.470872E+06       715.026306   344.829216E+06      -75.3991776
             1293   114.939472E+06   -57.474172E+06   -57.475528E+06      -230.981049    344.82784E+06       495.202637
             1294      114.943E+06   -57.473136E+06     -57.4706E+06       471.733795    344.82896E+06       96.9059067
             1295     114.9426E+06   -57.471888E+06    -57.47128E+06       159.121475   344.827904E+06       149.551361
             1296   114.942416E+06   -57.471332E+06   -57.471044E+06      -144.808731   344.827872E+06  -208.025903E-03
             1297   114.943528E+06   -57.470616E+06   -57.470184E+06      -328.052124   344.828128E+06      -225.769119
             1298   114.938088E+06   -57.478468E+06   -57.477644E+06      -200.118683   344.828736E+06   1.01621411E+03
             1299   114.942288E+06    -57.47204E+06   -57.470704E+06      -109.043823    344.82768E+06       521.974548
             1300   114.945872E+06    -57.46756E+06   -57.467624E+06       541.358459      344.828E+06       238.519257
             1301   114.941664E+06   -57.472072E+06   -57.471952E+06      -62.3402100   344.828224E+06      -8.00196648
             1302   114.941656E+06   -57.472328E+06     -57.4727E+06      -303.465149   344.827296E+06       130.760300
             1303    114.95916E+06   -57.454604E+06   -57.455984E+06   4.24630322E+03   344.825472E+06      -45.7545166
             1304   114.957352E+06   -57.457688E+06   -57.456936E+06  -1.57869165E+03   344.823712E+06      -809.741028
             1305   114.942008E+06   -57.471848E+06   -57.471668E+06      -85.1374207   344.827904E+06       112.322121
             1306   114.944968E+06   -57.468212E+06   -57.468512E+06      -627.522278   344.826976E+06      -788.477417
             1307    114.94256E+06   -57.470828E+06   -57.471076E+06      -342.376526   344.827584E+06      -79.7584381
             1308   114.943976E+06   -57.470344E+06   -57.470068E+06       369.299225   344.826944E+06       48.6327515
             1309   114.947664E+06    -57.46738E+06   -57.466752E+06       46.0196800    344.82832E+06  -1.31278552E+03
             1310   114.951504E+06   -57.466084E+06   -57.465304E+06  -1.11699023E+03   344.828736E+06      -823.992859
             1311    114.94216E+06     -57.4722E+06    -57.47268E+06  -1.02987268E+03   344.827136E+06      -117.781563
             1312   114.947136E+06   -57.467176E+06   -57.467936E+06       900.489014   344.828192E+06      -91.2670364
             1313   114.942272E+06    -57.47132E+06      -57.471E+06       65.0696030   344.828128E+06       241.345245
             1314   114.943312E+06   -57.470788E+06   -57.470876E+06      -304.595459   344.827776E+06       61.8746567
             1315   114.944456E+06    -57.46928E+06    -57.46918E+06       5.99571323    344.82752E+06      -380.684204
             1316    114.94316E+06   -57.470448E+06    -57.47018E+06      -162.833923   344.827552E+06      -82.0593033
             1317   114.944592E+06    -57.47098E+06    -57.47036E+06      -867.562073   344.828256E+06  -1.10701587E+03
             1318   114.942816E+06   -57.471372E+06   -57.471792E+06       99.8546524   344.827936E+06       209.541061
             1319   114.944392E+06   -57.469804E+06   -57.469824E+06      -219.170700    344.82736E+06      -94.0567856
             1320   114.944624E+06   -57.470016E+06   -57.469692E+06       354.146942    344.82736E+06      -298.652832
             1321   114.938184E+06   -57.476276E+06   -57.476548E+06      -382.394348   344.827072E+06      -997.600525
             1322   114.944336E+06   -57.471604E+06   -57.471984E+06       334.648193    344.82784E+06      -383.243591
             1323   114.941848E+06   -57.472308E+06   -57.471992E+06       331.284485      344.828E+06      -1.72559452
             1324   114.943496E+06   -57.471064E+06   -57.471156E+06       51.8358917    344.82816E+06      -33.8292732
             1325   114.941744E+06   -57.471804E+06   -57.472072E+06      -98.8471146   344.827712E+06      -305.078125
             1326   114.942208E+06     -57.4718E+06   -57.471696E+06      -211.582809   344.828096E+06      -93.8357773
             1327    114.94308E+06    -57.47072E+06   -57.470316E+06       33.9116783   344.827872E+06      -88.0193176
             1328    114.94364E+06    -57.46996E+06   -57.469808E+06       97.1494217    344.82784E+06      -206.816666
             1329    114.94308E+06   -57.471368E+06   -57.470904E+06       651.358093   344.827648E+06      -364.763611
             1330   114.944872E+06   -57.468656E+06   -57.469212E+06      -683.683533   344.827456E+06      -154.330139
             1331   114.943232E+06   -57.471156E+06   -57.471528E+06      -173.796570   344.827584E+06      -265.953339
             1332   114.941152E+06   -57.472848E+06   -57.472532E+06      -48.8314285   344.827936E+06      -403.446167
             1333   114.941552E+06   -57.471348E+06   -57.472408E+06      -204.733032   344.827232E+06      -117.914764
             1334   114.943128E+06   -57.471504E+06   -57.471092E+06       67.8019104    344.82832E+06      -182.030212
             1335      114.935E+06   -57.480452E+06   -57.480688E+06      -645.877563   344.828416E+06      -24.9445000
             1336    114.94572E+06   -57.468868E+06   -57.469652E+06      -890.456970   344.827488E+06      -246.325592
             1337   114.938088E+06   -57.475612E+06   -57.474344E+06       424.867035   344.828288E+06       509.951385
             1338   114.944376E+06   -57.470888E+06   -57.471652E+06      -409.167755   344.827328E+06      -456.606140
             1339     114.9426E+06     -57.4713E+06   -57.471496E+06       30.5422363   344.827712E+06      -91.2934189
             1340   114.943936E+06   -57.470076E+06    -57.46998E+06      -121.539398   344.827616E+06      -29.8296776
             1341   114.942296E+06   -57.471744E+06   -57.471336E+06       51.9412689    344.82816E+06      -201.724258
             1342   114.943568E+06   -57.472436E+06    -57.47274E+06       468.215942   344.827968E+06      -950.184570
             1343   114.941464E+06   -57.472368E+06   -57.472716E+06       21.0055218    344.82784E+06      -153.555878
             1344   114.951048E+06   -57.464068E+06    -57.46488E+06  -1.01365692E+03   344.827232E+06      -209.511536
             1345    114.94036E+06    -57.47082E+06   -57.471476E+06      -666.076843   344.827904E+06       531.270081
             1346    114.94308E+06   -57.471772E+06   -57.472844E+06  -1.22363220E+03   344.828416E+06      -14.0574064
             1347   114.945312E+06   -57.471044E+06   -57.471624E+06   1.33516931E+03   344.827872E+06      -851.512695
             1348   114.942864E+06   -57.470988E+06   -57.470476E+06       152.621109   344.828192E+06      -21.9374619
             1349   114.946488E+06   -57.471136E+06   -57.471296E+06   1.55081738E+03   344.828544E+06      -315.273346
             1350   114.940728E+06   -57.475128E+06   -57.475908E+06  -1.33318689E+03   344.828672E+06      -423.427246
             1351   114.943152E+06   -57.471028E+06   -57.471412E+06       53.4519806   344.827552E+06      -112.831123
             1352   114.946688E+06    -57.46712E+06   -57.466472E+06      -427.383667   344.826496E+06       199.515442
             1353    114.94448E+06   -57.470032E+06   -57.469872E+06       147.654739   344.827712E+06      -6.99659157
             1354   114.937472E+06   -57.474108E+06   -57.474792E+06      -94.3544235   344.828544E+06   1.28683423E+03
             1355   114.962664E+06   -57.458772E+06    -57.45722E+06   2.38405493E+03   344.825792E+06      -304.590576
             1356   114.942744E+06   -57.470732E+06   -57.471708E+06      -450.400787   344.827296E+06       33.3555679
             1357   114.946968E+06   -57.467464E+06    -57.46692E+06      -647.127930    344.82736E+06       298.238251
             1358   114.943592E+06   -57.470228E+06   -57.469624E+06       6.81405020   344.827648E+06      -341.374756
             1359    114.94196E+06    -57.47188E+06   -57.471532E+06      -395.241882   344.828448E+06       314.078430
             1360    114.94492E+06   -57.467424E+06   -57.467232E+06      -958.745117   344.827168E+06      -297.815887
             1361    114.94064E+06   -57.472952E+06   -57.472736E+06      -241.221405   344.828288E+06      -78.6024246
             1362    114.94292E+06   -57.470908E+06   -57.471236E+06      -98.0981140   344.827936E+06       128.724136
             1363   114.940488E+06   -57.473188E+06   -57.473236E+06       1.83226740   344.827968E+06       374.156708
             1364   114.942344E+06   -57.471548E+06   -57.471884E+06       248.044403   344.827776E+06       223.224808
             1365   114.943944E+06   -57.470276E+06   -57.470632E+06      -160.188110    344.82784E+06      -4.37716150
             1366   114.942552E+06    -57.47094E+06   -57.470652E+06      -88.2359085   344.827936E+06       173.409439
             1367   114.942576E+06   -57.472464E+06   -57.471968E+06       55.7720985   344.827776E+06       242.202988
             1368    114.94424E+06   -57.470612E+06   -57.470568E+06       79.5322495   344.828224E+06       62.5888786
             1369   114.944528E+06   -57.469972E+06   -57.470124E+06       86.7093430    344.82816E+06       107.344231
             1370   114.942616E+06    -57.47102E+06   -57.470624E+06      -138.454651      344.828E+06       116.071564
             1371   114.941576E+06   -57.472148E+06   -57.472296E+06       219.962631   344.828448E+06       249.403778
             1372    114.94188E+06   -57.472088E+06   -57.472276E+06      -44.3953171   344.828064E+06       44.0877228
             1373   114.942928E+06   -57.471444E+06   -57.471468E+06       28.3318691   344.827968E+06       62.8536644
             1374   114.939808E+06   -57.474376E+06   -57.474464E+06      -105.654968   344.828512E+06      -336.847748
             1375   114.942808E+06    -57.47178E+06   -57.472012E+06       58.9042015      344.828E+06       112.633644
             1376   114.941224E+06   -57.465308E+06   -57.466004E+06      -590.951782    344.82608E+06      -114.183052
             1377   115.009624E+06   -57.418508E+06   -57.417908E+06      -201.511368   344.826208E+06       918.609497
             1378   114.948184E+06   -57.465232E+06   -57.467084E+06      -920.192444   344.826144E+06      -720.582153
             1379   114.941712E+06   -57.472692E+06   -57.472188E+06      -122.649490   344.827712E+06       289.506104
             1380   114.954056E+06   -57.462776E+06   -57.461356E+06       821.683777   344.827456E+06   1.50836755E+03
             1381   114.933336E+06   -57.480932E+06   -57.484128E+06   1.47723962E+03   344.830528E+06       123.446648
             1382    114.93976E+06    -57.47376E+06   -57.473552E+06      -565.020386    344.82864E+06       229.199799
             1383   114.944312E+06   -57.470216E+06   -57.469804E+06       589.095947   344.827936E+06       292.008636
             1384   114.943432E+06   -57.470524E+06   -57.470272E+06      -59.8554726   344.827648E+06       98.3925171
             1385   114.942472E+06   -57.471612E+06   -57.471688E+06       282.553986   344.828096E+06       187.026932
             1386   114.943128E+06   -57.470952E+06    -57.47114E+06       91.1434097      344.828E+06       103.958839
             1387   114.946776E+06   -57.467364E+06   -57.467948E+06      -99.9248657   344.827392E+06       374.095032
             1388    114.93792E+06   -57.475668E+06   -57.475296E+06       751.649536   344.828512E+06       285.505676
             1389   114.945448E+06    -57.46862E+06   -57.469132E+06       45.0857620   344.827392E+06       435.050476
             1390   114.941416E+06   -57.472368E+06   -57.472592E+06       290.448181   344.828128E+06       172.549347
             1391    114.94308E+06   -57.470284E+06   -57.470764E+06       147.878052   344.827456E+06       354.965515
             1392    114.95212E+06    -57.46592E+06   -57.464752E+06  -3.49227710E+03   344.828256E+06  -1.32991125E+03
             1393   114.940032E+06   -57.474176E+06   -57.474536E+06      -268.849792   344.826912E+06      -521.500977
             1394   114.939088E+06   -57.475444E+06   -57.475936E+06      -545.949158   344.828768E+06       695.111328
             1395   114.952744E+06   -57.462904E+06   -57.461512E+06      -947.803711   344.824864E+06       564.996216
             1396    114.94192E+06   -57.475172E+06   -57.476204E+06   5.28594922E+03   344.832992E+06      -174.993332
             1397   114.939736E+06   -57.474072E+06   -57.474088E+06       295.228577   344.828736E+06       148.022552
             1398   114.942744E+06    -57.47112E+06   -57.470972E+06       106.588394   344.828032E+06       92.8183823
             1399   114.942808E+06   -57.471028E+06   -57.471356E+06       56.4735756      344.828E+06       81.0882034
             1400   114.943016E+06   -57.471004E+06   -57.470932E+06      -144.131943    344.82752E+06      -112.466576
             1401   114.943168E+06     -57.4704E+06    -57.47074E+06       42.1712379   344.827648E+06      -12.8225574
             1402   114.944464E+06   -57.469112E+06   -57.469088E+06       156.575668   344.827392E+06      -380.943390
             1403    114.94032E+06   -57.473636E+06   -57.473724E+06       313.594604   344.827968E+06      -38.0060234
             1404   114.941496E+06     -57.4729E+06   -57.472436E+06      -159.162857   344.828448E+06      -198.030273
             1405    114.94272E+06   -57.471496E+06   -57.471528E+06      -13.0365438   344.828064E+06      -147.928375
             1406    114.94292E+06   -57.471296E+06    -57.47132E+06      -323.053833    344.82816E+06       270.697601
             1407     114.9418E+06   -57.472204E+06   -57.472092E+06       109.980354    344.82816E+06      -134.578232
             1408   114.943312E+06   -57.470828E+06   -57.471048E+06      -106.433784      344.828E+06      -139.000336
             1409    114.94308E+06    -57.47114E+06   -57.470984E+06       11.2474585   344.827872E+06       154.708206
             1410   114.943704E+06   -57.470324E+06    -57.47056E+06       110.052193   344.827808E+06       89.1094666
             1411    114.94308E+06    -57.47098E+06   -57.471188E+06       9.31940174   344.827872E+06       51.8396454
             1412   114.943448E+06   -57.470376E+06     -57.4703E+06      -14.8489695    344.82784E+06      -47.8010445
             1413   114.942976E+06     -57.4709E+06   -57.470548E+06       50.5290909   344.827872E+06      -54.8820992
             1414    114.94388E+06   -57.469964E+06   -57.469684E+06       124.717545   344.827648E+06       162.386337
             1415   114.941064E+06   -57.472324E+06   -57.472036E+06       42.3308258   344.827808E+06       148.484360
             1416   114.941712E+06   -57.470928E+06   -57.471816E+06       248.897614   344.827264E+06       550.362610
             1417   114.950248E+06   -57.467208E+06   -57.466568E+06      -478.676208   344.828512E+06      -498.887665
             1418    114.94108E+06    -57.47254E+06   -57.472356E+06      -51.0319901   344.828128E+06       58.9444351
             1419   114.943416E+06   -57.474308E+06    -57.47434E+06      -40.8066635    344.82944E+06       19.7136650
             1420   114.942296E+06   -57.471672E+06   -57.471356E+06       121.198090   344.827968E+06      -45.5589409
             1421   114.941056E+06   -57.473204E+06   -57.472192E+06      -178.163879   344.828416E+06       87.0202560
             1422   114.953128E+06   -57.459944E+06   -57.459488E+06      -925.890198   344.825632E+06  -1.52211487E+03
             1423   114.947416E+06   -57.467648E+06    -57.46748E+06   1.70436169E+03   344.828192E+06       386.229187
             1424      114.934E+06   -57.479516E+06   -57.478804E+06  -2.20677002E+03    344.83024E+06       443.249573
             1425    114.95228E+06   -57.466928E+06   -57.467484E+06  -2.53547852E+03   344.830336E+06      -62.0044212
             1426   114.946024E+06   -57.468156E+06    -57.46818E+06       650.273804   344.827584E+06      -183.297714
             1427   114.982944E+06   -57.441724E+06   -57.443496E+06  -3.94924365E+03   344.828544E+06      -252.704865
             1428     114.9468E+06    -57.46698E+06      -57.467E+06  -1.08057068E+03   344.828928E+06  -1.35518420E+03
             1429    114.94364E+06   -57.471812E+06   -57.469452E+06  -1.16454883E+03   344.829536E+06       255.682144
             1430   114.939008E+06   -57.475756E+06   -57.475472E+06      -166.028961   344.827776E+06      -614.272461
             1431   114.942312E+06    -57.47396E+06   -57.471004E+06  -1.10216980E+03   344.829568E+06      -45.5886955
             1432    114.95084E+06   -57.463776E+06   -57.463848E+06       487.060303    344.82576E+06      -148.062607
             1433   114.943416E+06   -57.470436E+06    -57.47006E+06       170.214310    344.82704E+06      -84.8862076
             1434   114.941352E+06   -57.472496E+06   -57.472572E+06       287.782867   344.828576E+06       85.0120392
             1435   114.946576E+06   -57.467972E+06     -57.4679E+06      -791.741272    344.82912E+06      -297.949310
             1436   114.940728E+06   -57.473252E+06    -57.47308E+06       422.885468   344.828128E+06       183.377228
             1437   114.942984E+06      -57.471E+06   -57.471096E+06       46.0739670   344.828192E+06      -6.95593643
             1438   114.925144E+06   -57.482308E+06   -57.483952E+06      -238.970627   344.827488E+06      -122.528793
             1439   114.943992E+06   -57.468312E+06   -57.468836E+06       110.109825   344.826176E+06       147.262970
             1440   114.935048E+06     -57.4752E+06    -57.47602E+06      -312.351715   344.825824E+06       117.451813
             1441   114.943736E+06   -57.471904E+06   -57.472992E+06      -458.244385   344.827584E+06      -319.437256
             1442   114.943336E+06    -57.47036E+06   -57.470628E+06       9.74028397   344.827712E+06      -70.5947647
             1443   114.945408E+06   -57.468908E+06   -57.468704E+06  -1.16601514E+03    344.82912E+06  -1.18005212E+03
             1444   114.940048E+06   -57.473176E+06   -57.473448E+06       902.263306   344.827072E+06       71.1929398
             1445   114.939896E+06   -57.474872E+06   -57.476488E+06       44.3723297   344.828864E+06      -260.949738
             1446    114.94856E+06   -57.467216E+06   -57.467564E+06      -704.925049   344.827584E+06       41.6561317
             1447   114.933816E+06   -57.475732E+06   -57.476976E+06      -515.415100    344.82656E+06      -86.7419052
             1448    114.99864E+06    -57.42756E+06   -57.426604E+06  -2.91762109E+03   344.822944E+06       255.660736
             1449   114.940048E+06   -57.470632E+06   -57.472216E+06  -1.72803992E+03   344.826272E+06  -1.05067773E+03
             1450   114.943664E+06   -57.470044E+06   -57.469992E+06      -157.686737    344.82768E+06       16.6533241
             1451   114.941936E+06   -57.471784E+06   -57.471788E+06       19.6054764    344.82784E+06       24.3026028
             1452   114.942512E+06   -57.471208E+06   -57.471084E+06       35.7060165    344.82768E+06       44.9114037
             1453   114.943096E+06   -57.470932E+06   -57.471028E+06       58.9578514   344.827904E+06       77.6911774
             1454      114.943E+06   -57.471568E+06   -57.471844E+06      -54.1172638   344.828096E+06      -128.110382
             1455   114.941008E+06   -57.472956E+06   -57.473044E+06       126.863922    344.82848E+06      -164.342407
             1456   114.942656E+06   -57.471176E+06   -57.471388E+06      -26.8904305   344.828096E+06      -84.8644257
             1457   114.943272E+06   -57.470996E+06   -57.471408E+06      -79.5994797   344.828224E+06      -42.7480736
             1458   114.942104E+06   -57.472032E+06    -57.47188E+06       514.891357      344.828E+06       174.908508
             1459   114.942232E+06   -57.471776E+06   -57.471784E+06      -225.168472   344.827904E+06      -243.890991
             1460   114.944824E+06   -57.469352E+06    -57.46822E+06      -580.717285   344.827136E+06       509.169403
             1461   114.944688E+06   -57.468768E+06   -57.469256E+06      -333.286011   344.827072E+06      -127.769447
             1462   114.941416E+06   -57.472132E+06   -57.471656E+06      -227.973175      344.828E+06       49.5768394
             1463   114.943512E+06   -57.470084E+06   -57.469748E+06       37.0815849   344.827456E+06       137.748596
             1464   114.944928E+06   -57.467564E+06   -57.470744E+06       450.897400   344.828064E+06      -250.481171
             1465   114.941272E+06   -57.474036E+06   -57.474672E+06      -483.083160   344.828384E+06      -73.5836945
             1466   114.942504E+06   -57.471208E+06    -57.47072E+06       99.2650070   344.828192E+06  -191.881284E-03
             1467   114.938856E+06    -57.47706E+06   -57.475964E+06       821.293457   344.828192E+06      -544.700928
             1468   114.942368E+06   -57.471116E+06   -57.472608E+06       334.557068   344.828032E+06      -196.352753
             1469   114.939784E+06   -57.476212E+06   -57.475432E+06      -201.663086   344.828256E+06      -215.830414
             1470    114.94916E+06   -57.466636E+06   -57.466704E+06       389.734863   344.826592E+06  -1.41814001E+03
             1471   114.950728E+06   -57.465576E+06   -57.464988E+06       640.446960   344.827264E+06  -1.41347461E+03
             1472   114.942112E+06   -57.472044E+06    -57.47178E+06       306.657196   344.828192E+06      -74.8931580
             1473   114.943728E+06   -57.470524E+06   -57.470652E+06       39.9848633   344.827872E+06       178.248123
             1474   114.941136E+06   -57.472648E+06   -57.472788E+06       223.353104   344.828544E+06       132.033524
             1475   114.941696E+06   -57.472532E+06   -57.472388E+06       60.0666313   344.828256E+06       75.1040421
             1476   114.945392E+06   -57.469164E+06    -57.46912E+06       400.258148    344.82816E+06       118.604050
             1477    114.97088E+06   -57.450708E+06    -57.45148E+06  -3.22689771E+03    344.83472E+06  -1.36742285E+03
             1478   114.948424E+06    -57.46686E+06   -57.467024E+06       655.172485   344.828544E+06       91.6146851
             1479   114.941856E+06   -57.471596E+06     -57.4715E+06       81.3776245   344.827168E+06       129.648087
             1480    114.93872E+06   -57.474688E+06   -57.474776E+06      -648.656982   344.828224E+06      -7.55836248
             1481     114.9392E+06   -57.472776E+06     -57.4739E+06      -276.884247   344.827424E+06       318.906952
             1482   114.948136E+06   -57.469984E+06   -57.467952E+06       38.9986763   344.829088E+06      -360.275818
             1483   114.932952E+06   -57.483568E+06   -57.479952E+06   1.57641138E+03    344.82752E+06       541.989624
             1484   115.007888E+06   -57.418572E+06   -57.419968E+06   3.92350781E+03      344.824E+06       548.005798
             1485   114.933896E+06   -57.471588E+06    -57.47142E+06      -20.6002369   344.824608E+06      -892.289490
             1486   114.944872E+06    -57.47142E+06   -57.470012E+06  -1.09976318E+03   344.828928E+06      -389.657013
             1487   114.911216E+06     -57.4966E+06   -57.498716E+06   2.47474097E+03   344.831424E+06  -1.04092969E+03
             1488   114.941664E+06   -57.472464E+06    -57.47232E+06       61.9453087   344.828256E+06       83.3441544
             1489    114.95432E+06   -57.464576E+06   -57.464244E+06      -475.523132   344.828192E+06      -453.533081
             1490   114.945168E+06   -57.470036E+06   -57.470088E+06       657.586060   344.828992E+06       218.476898
             1491   114.926616E+06   -57.486616E+06   -57.485572E+06   1.58768030E+03    344.82944E+06       668.640991
             1492   114.939944E+06   -57.474528E+06    -57.47558E+06   2.02848547E+03   344.828192E+06       399.144806
             1493   114.947384E+06    -57.46578E+06      -57.466E+06      -132.261734   344.826624E+06      -386.786285
             1494   114.942288E+06   -57.472012E+06   -57.470928E+06      -323.948608   344.827456E+06      -172.115845
             1495   114.943008E+06   -57.470668E+06   -57.470448E+06      -462.559021   344.827136E+06      -140.349243
             1496   114.945536E+06   -57.469164E+06   -57.468796E+06       9.82526493   344.827776E+06      -263.186768
             1497   114.952272E+06   -57.465716E+06   -57.466852E+06   1.48854272E+03   344.828704E+06       325.481415
             1498   114.941624E+06   -57.473132E+06   -57.472972E+06  -2.37697632E+03   344.827872E+06      -771.506653
             1499    114.94796E+06   -57.463832E+06   -57.465412E+06       990.533813   344.828288E+06   1.97860034E+03
             1500   114.943064E+06   -57.469436E+06    -57.47148E+06  -1.58224573E+03   344.828512E+06      -130.580933
             1501   114.943416E+06   -57.470676E+06   -57.470576E+06      -130.842514   344.828064E+06       9.53122044
             1502   114.943192E+06   -57.472272E+06   -57.471856E+06      -494.897095   344.827424E+06       491.377075
             1503   114.944112E+06   -57.466352E+06   -57.466284E+06  -2.01533240E+03   344.823616E+06      -20.4757805
             1504   114.985512E+06   -57.434308E+06   -57.436636E+06   6.21747217E+03   344.826144E+06   1.85053955E+03
             1505    114.94048E+06   -57.475388E+06    -57.47386E+06       886.115784   344.828192E+06       53.5411758
             1506   114.943664E+06   -57.469484E+06   -57.470304E+06      -44.7144966   344.827872E+06       124.346779
             1507   114.942128E+06   -57.471384E+06   -57.471128E+06      -281.486603   344.827872E+06      -18.2762661
             1508   114.940312E+06   -57.470496E+06   -57.471708E+06       797.454895   344.828736E+06      -53.3720360
             1509   114.938952E+06   -57.475512E+06   -57.475088E+06  -1.26661096E+03   344.828032E+06       601.847107
             1510   114.942744E+06   -57.470936E+06   -57.469736E+06       133.154907   344.828256E+06      -691.238525
             1511   114.940472E+06   -57.471204E+06    -57.47182E+06       79.9741440    344.82864E+06       115.563980
             1512   114.941512E+06   -57.472076E+06   -57.471172E+06       377.066864   344.828096E+06      -15.2956591
             1513     114.9454E+06     -57.4682E+06   -57.468044E+06       582.246765   344.827936E+06      -422.501221
             1514   114.948056E+06    -57.46476E+06   -57.464324E+06   1.14709534E+03   344.826176E+06       593.580994
             1515    114.94992E+06   -57.462696E+06   -57.465552E+06      -256.677551   344.828416E+06       820.738220
             1516   114.948048E+06   -57.464684E+06   -57.463644E+06  -3.92592847E+03   344.824288E+06      -404.514038
             1517   114.963872E+06   -57.448932E+06   -57.449708E+06  -4.86082275E+03    344.82336E+06       706.214844
             1518   114.944424E+06   -57.469012E+06    -57.46896E+06   2.83002612E+03   344.826624E+06       434.547760
             1519   114.941576E+06   -57.474664E+06   -57.472256E+06       699.094604   344.828256E+06      -378.679077
             1520    114.94116E+06   -57.472304E+06   -57.472424E+06      -201.845230   344.828032E+06       28.4731541
             1521   114.942768E+06   -57.471376E+06   -57.471012E+06      -52.9517250   344.828096E+06      -91.9473877
             1522   114.944224E+06   -57.469772E+06   -57.470312E+06      -88.4147110   344.827872E+06       222.764694
             1523   114.944208E+06    -57.46894E+06   -57.470872E+06   1.06613049E+03    344.82656E+06       838.130371
             1524   114.941536E+06   -57.471664E+06   -57.471236E+06       138.867035   344.828256E+06       174.640900
             1525   114.943296E+06   -57.470124E+06   -57.469784E+06      -44.2610893   344.827552E+06       49.2793846
             1526   114.943216E+06   -57.470992E+06   -57.471124E+06      -45.7707596   344.827936E+06       28.9548969
             1527   114.945192E+06   -57.468216E+06   -57.467204E+06      -223.972153   344.827616E+06       66.1827927
             1528   114.944128E+06    -57.46978E+06    -57.47016E+06       72.6158752   344.827392E+06      -28.5911007
             1529    114.94388E+06   -57.470208E+06   -57.470316E+06      -31.2164650   344.827488E+06       39.3317146
             1530   114.944456E+06   -57.469732E+06    -57.46956E+06       53.5025826   344.827584E+06      -268.585907
             1531    114.94424E+06   -57.470348E+06    -57.47096E+06       293.770416   344.827328E+06       231.896667
             1532   114.942448E+06   -57.471404E+06   -57.471376E+06       30.8651791   344.827808E+06      -36.9377785
             1533   114.942768E+06    -57.47132E+06   -57.471132E+06       13.1480694   344.827616E+06      -84.4246292
             1534   114.936832E+06   -57.476444E+06   -57.477212E+06      -334.375336   344.828992E+06       376.535797
             1535   114.939368E+06   -57.473824E+06   -57.474732E+06       142.728653   344.827296E+06       515.868347
             1536   114.941488E+06    -57.47188E+06   -57.471972E+06       88.3488770   344.827456E+06       173.869186
             1537   114.939456E+06   -57.475052E+06   -57.474244E+06      -610.099243    344.82848E+06      -211.672791
             1538    114.94352E+06   -57.470632E+06   -57.470484E+06      -102.740585   344.827936E+06      -88.6049805
             1539   114.941512E+06   -57.472296E+06   -57.471984E+06       224.444489    344.82816E+06      -51.6551361
             1540   114.942944E+06   -57.471732E+06   -57.472156E+06      -488.093048   344.828096E+06      -536.180847
             1541   114.943344E+06   -57.470392E+06   -57.470584E+06      -143.452423   344.827808E+06      -43.6049309
             1542    114.93092E+06   -57.475856E+06   -57.478752E+06   2.06259131E+03   344.828768E+06      -14.2470226
             1543   114.944816E+06      -57.469E+06   -57.468884E+06      -250.370865   344.827744E+06       209.259323
             1544   114.948768E+06   -57.464768E+06   -57.465448E+06       639.142151   344.827328E+06       369.381042
             1545    114.96132E+06   -57.459152E+06    -57.45826E+06      -370.832092    344.82896E+06   2.14015161E+03
             1546   114.938632E+06     -57.4769E+06   -57.477464E+06   3.44843530E+03   344.827968E+06       336.743256
             1547    114.95136E+06   -57.467452E+06   -57.467312E+06       976.797302   344.830144E+06      -636.545776
             1548      114.949E+06   -57.467976E+06    -57.46324E+06      -114.699402   344.830496E+06      -483.073639
             1549   114.955144E+06   -57.461376E+06    -57.45882E+06   1.04847864E+03   344.829344E+06      -644.415100
             1550   114.930848E+06   -57.478084E+06   -57.479112E+06       537.310913     344.8248E+06       465.046692
             1551   114.961464E+06   -57.457156E+06   -57.455356E+06  -1.07724731E+03   344.824928E+06      -714.177673
             1552   114.943016E+06   -57.470448E+06   -57.470116E+06       620.212402   344.828608E+06       658.056641
             1553    114.94428E+06    -57.47008E+06    -57.46902E+06       141.094360    344.82816E+06      -146.215103
             1554   114.944208E+06    -57.46888E+06   -57.470152E+06      -181.457626   344.827488E+06      -187.563400
             1555   114.939952E+06   -57.475216E+06   -57.474648E+06       128.278900    344.82816E+06      -474.507050
             1556   114.940336E+06   -57.473212E+06    -57.47338E+06      -181.117111   344.828064E+06      -7.30514956
             1557   114.937416E+06   -57.475612E+06   -57.475468E+06       834.802917   344.828608E+06       36.0143547
             1558   114.942928E+06   -57.470536E+06   -57.470432E+06      -227.923050    344.82752E+06      -358.126892
             1559   114.942312E+06   -57.470892E+06   -57.470932E+06       96.7732544   344.827968E+06      -84.5876999
             1560   114.941728E+06   -57.471928E+06   -57.472012E+06      -241.914185   344.828032E+06       156.468002
             1561   114.895224E+06     -57.5107E+06   -57.508744E+06      -126.024628   344.833728E+06       838.140503
             1562   114.933096E+06     -57.4808E+06   -57.482376E+06  -1.13524951E+03   344.830944E+06  -1.03282764E+03
             1563   114.962744E+06   -57.453064E+06   -57.450988E+06  -2.63661938E+03   344.826144E+06   1.17843860E+03
             1564   114.936808E+06    -57.47694E+06   -57.479584E+06      -38.4692917   344.829312E+06       508.043274
             1565   114.944032E+06   -57.470436E+06   -57.469928E+06       53.7451324   344.827808E+06      -39.1052208
             1566   114.940688E+06   -57.474376E+06   -57.473164E+06  -1.00000134E+03   344.829088E+06      -609.060364
             1567   114.909096E+06    -57.49788E+06   -57.497324E+06  -6.39517676E+03   344.829472E+06       602.069275
             1568   114.920936E+06   -57.487988E+06   -57.489288E+06  -1.83415503E+03   344.827744E+06      -449.171814
             1569   114.944504E+06   -57.469768E+06   -57.469672E+06       79.9083252    344.82768E+06   620.256126E-03
             1570   114.941128E+06   -57.472672E+06   -57.472404E+06       285.185974   344.828128E+06      -119.936211
             1571   114.942288E+06   -57.473884E+06   -57.474008E+06       383.012115   344.828704E+06       535.939514
             1572    114.93608E+06   -57.474592E+06   -57.475784E+06      -967.396240   344.826912E+06      -561.850403
             1573   114.945576E+06   -57.468896E+06   -57.468684E+06       659.492065   344.827936E+06      -16.5989799
             1574   114.942312E+06   -57.471876E+06   -57.472532E+06  -2.58033911E+03   344.828192E+06      -369.063904
             1575   114.939856E+06    -57.47408E+06   -57.473392E+06       63.5219345    344.82768E+06       181.530655
             1576   114.948152E+06   -57.466816E+06   -57.468136E+06       910.984741   344.827936E+06       133.736252
             1577   114.945968E+06   -57.469072E+06   -57.468756E+06       657.230713   344.828288E+06       206.080612
             1578    114.98532E+06   -57.442012E+06   -57.441252E+06  -5.30592871E+03   344.828992E+06  -1.06135864E+03
             1579   114.943336E+06   -57.471684E+06   -57.472332E+06  -1.05783997E+03   344.827648E+06      -839.529236
             1580   114.938568E+06   -57.474368E+06   -57.472976E+06   2.23587061E+03    344.82384E+06       467.607758
             1581   114.943608E+06    -57.47208E+06   -57.472452E+06       53.7980881    344.82736E+06      -783.238403
             1582    114.94136E+06   -57.472108E+06   -57.473324E+06  -1.53376672E+03   344.827232E+06      -521.048950
             1583   114.966992E+06   -57.450036E+06   -57.451972E+06      -555.231934   344.823872E+06       931.255737
             1584    114.93648E+06    -57.47922E+06   -57.480676E+06      -786.513489   344.828928E+06  -1.31308679E+03
             1585   114.949248E+06   -57.465412E+06   -57.465396E+06  -1.78722974E+03   344.827104E+06       270.793671
             1586   114.944816E+06   -57.469416E+06   -57.469488E+06      -87.0928650   344.828032E+06       73.7510071
             1587   114.960088E+06   -57.457236E+06    -57.45782E+06      -989.863037   344.826848E+06      -39.2544594
             1588   114.943544E+06   -57.470344E+06    -57.47042E+06      -86.7427368   344.827936E+06       82.1043396
             1589   114.932792E+06   -57.482044E+06   -57.481716E+06      -11.3836088   344.829248E+06       261.688507
             1590   114.945816E+06   -57.469448E+06   -57.468576E+06  -3.29404956E+03   344.831232E+06       815.586548
             1591   114.947984E+06   -57.467548E+06   -57.468196E+06      -759.732422   344.827872E+06      -110.101547
             1592    114.94992E+06   -57.463248E+06   -57.463868E+06       604.348022   344.828096E+06      -29.1837635
             1593    114.94112E+06   -57.471816E+06   -57.472296E+06       628.271118   344.827488E+06      -363.231323
             1594   114.942952E+06   -57.470488E+06    -57.47038E+06      -100.820168   344.827904E+06      -141.544708
             1595   114.941568E+06    -57.47014E+06   -57.471356E+06      -218.363007   344.827392E+06      -908.206787
             1596    114.94776E+06   -57.467264E+06   -57.467624E+06       809.587097   344.829248E+06      -304.520264
             1597    114.93756E+06   -57.472964E+06    -57.47436E+06  -1.03003430E+03    344.82624E+06      -166.497665
             1598    114.92284E+06   -57.487216E+06   -57.488216E+06       389.987976   344.828064E+06      -689.922180
             1599   114.939904E+06   -57.473344E+06   -57.473856E+06      -280.937714   344.827104E+06      -214.077026
             1600   114.935432E+06   -57.476808E+06   -57.478736E+06       506.982452   344.829504E+06       931.984985
             1601    114.94052E+06   -57.473216E+06   -57.473636E+06      -219.267059    344.82864E+06       319.190857
             1602    114.93348E+06   -57.481536E+06   -57.481284E+06   1.49415210E+03   344.830208E+06       677.803650
             1603     114.9488E+06    -57.46864E+06   -57.467888E+06      -325.370880   344.828672E+06      -545.027344
             1604   114.947464E+06   -57.467408E+06   -57.467792E+06      -226.002228      344.828E+06      -251.365936
             1605   114.961136E+06   -57.455192E+06   -57.454156E+06  -6.68680811E+03   344.827936E+06   1.06711755E+03
             1606   114.943256E+06   -57.470768E+06   -57.470864E+06       251.561813   344.827936E+06       114.523361
             1607   114.942768E+06   -57.467608E+06   -57.468324E+06       189.019821   344.825536E+06   1.90382336E+03
             1608    114.94984E+06   -57.464508E+06   -57.464824E+06       114.728653   344.827424E+06      -134.480606
             1609   114.943304E+06    -57.47102E+06   -57.471516E+06       209.087601   344.827904E+06      -275.798340
             1610   114.962496E+06   -57.456564E+06   -57.454444E+06      -293.494629   344.828544E+06      -401.971283
             1611   114.932328E+06   -57.480624E+06    -57.48576E+06      -944.336304   344.830304E+06       500.525116
             1612   114.944064E+06   -57.472316E+06   -57.472708E+06      -163.972519   344.829408E+06       96.3308563
             1613   114.986448E+06     -57.4304E+06   -57.431604E+06   1.09388538E+03   344.816544E+06   1.45328833E+03
             1614   114.942456E+06   -57.471472E+06    -57.47172E+06      -78.0790710   344.828096E+06       34.8166580
             1615   114.950104E+06   -57.466648E+06    -57.46656E+06   1.82361572E+03   344.829376E+06      -57.4673195
             1616   114.941896E+06   -57.472032E+06   -57.472336E+06      -155.240936   344.828384E+06      -95.7462997
             1617   114.942128E+06   -57.471304E+06     -57.4714E+06      -164.776474   344.827872E+06      -15.9742117
             1618   114.943816E+06   -57.470152E+06   -57.469904E+06      -260.705048   344.827936E+06      -131.615051
             1619   114.942896E+06   -57.470512E+06   -57.470828E+06       164.626999   344.827712E+06      -133.781891
             1620   114.941752E+06    -57.47206E+06   -57.472104E+06       121.947266   344.827936E+06       57.6546402
             1621   114.941344E+06     -57.4692E+06   -57.471504E+06   2.00768848E+03   344.825536E+06       393.131104
             1622   114.942744E+06   -57.471204E+06   -57.471112E+06       24.5952454   344.828064E+06      -187.311386
             1623   114.987288E+06   -57.443404E+06     -57.4397E+06      -318.455627   344.826848E+06      -418.656525
             1624   114.945176E+06   -57.469016E+06   -57.470676E+06  -1.46716541E+03   344.827936E+06       373.505249
             1625   114.944264E+06     -57.4651E+06   -57.465644E+06       973.333496   344.823712E+06      -683.138855
             1626    114.95088E+06    -57.45982E+06   -57.462352E+06      -483.444611   344.824032E+06  -1.39963635E+03
             1627     114.9266E+06   -57.489908E+06   -57.486248E+06  -6.31749951E+03   344.827456E+06       9.48243999
             1628    114.89772E+06   -57.507836E+06   -57.506436E+06   4.87276953E+03   344.830304E+06       315.804688
             1629   114.946648E+06    -57.46736E+06   -57.466764E+06      -28.1413727     344.8288E+06       601.768555
             1630   114.943232E+06    -57.47024E+06    -57.47034E+06       104.959442   344.827776E+06      -97.9471817
             1631    114.96912E+06   -57.446856E+06   -57.449096E+06   1.30959631E+03   344.825504E+06  -1.44556885E+03
             1632    114.94384E+06   -57.470316E+06   -57.470376E+06       54.7599258   344.828416E+06      -314.429718
             1633   114.942504E+06   -57.471852E+06   -57.472308E+06      -75.8086319    344.82832E+06      -465.491577
             1634   114.942432E+06   -57.471348E+06   -57.471848E+06      -19.8101692   344.828128E+06       301.376556
             1635   114.938128E+06   -57.475272E+06     -57.4757E+06      -191.206741   344.828032E+06      -355.089996
             1636     114.9402E+06   -57.467032E+06   -57.467956E+06   3.60934985E+03   344.820864E+06       395.833923
             1637   114.944032E+06    -57.47038E+06    -57.47054E+06       266.766632   344.828448E+06       340.295441
             1638    114.94092E+06   -57.473212E+06    -57.47342E+06      -97.9336929    344.82832E+06       158.460983
             1639   114.934872E+06   -57.476404E+06   -57.471508E+06  -1.85162610E+03   344.831936E+06       154.341263
             1640   114.941152E+06   -57.471696E+06   -57.473012E+06      -277.161255   344.827328E+06      -76.4317780
             1641   114.935208E+06   -57.476016E+06   -57.476124E+06  -1.02716174E+03   344.825536E+06      -505.035828
             1642   114.951168E+06   -57.462264E+06   -57.462768E+06  -1.73694666E+03   344.826176E+06      -722.926208
             1643   114.949384E+06   -57.462892E+06     -57.4636E+06   1.61437305E+03   344.824448E+06       590.894958
             1644   114.938856E+06    -57.47548E+06    -57.47454E+06   1.24947632E+03    344.82976E+06      -341.874054
             1645   114.948368E+06   -57.469408E+06   -57.469548E+06   1.12229993E+03   344.827232E+06       14.6376152
             1646   114.948288E+06   -57.469696E+06   -57.470176E+06       546.956238   344.828288E+06      -394.651215
             1647   114.948696E+06   -57.465132E+06   -57.463776E+06       999.043457   344.828096E+06       383.222595
             1648    114.94632E+06   -57.466036E+06   -57.465428E+06      -575.957336   344.827104E+06      -165.876083
             1649   114.968344E+06    -57.44822E+06    -57.44894E+06  -1.59060583E+03   344.821888E+06      -855.410217
             1650   114.942032E+06   -57.471972E+06     -57.4716E+06       372.651855   344.828288E+06      -1.26091635
             1651   115.024528E+06    -57.39956E+06   -57.401912E+06  -7.27847119E+03   344.820864E+06   1.06694678E+03
             1652   114.944136E+06   -57.470404E+06   -57.470504E+06       87.2666092    344.82816E+06      -215.142975
             1653    114.94216E+06   -57.471484E+06   -57.471376E+06      -210.104889   344.828192E+06      -52.8268509
             1654   114.943904E+06   -57.470064E+06   -57.470032E+06      -211.925873   344.828032E+06       303.610046
             1655   114.941992E+06   -57.471808E+06   -57.471452E+06       49.8319893   344.828288E+06       103.949158
             1656    114.94228E+06   -57.471572E+06   -57.471472E+06      -23.6457729   344.828032E+06      -177.838196
             1657   114.944216E+06   -57.469924E+06   -57.470076E+06  -1.50292444E+03   344.827904E+06      -251.201843
             1658   114.942088E+06   -57.472148E+06      -57.472E+06      -319.295685   344.828224E+06      -179.791901
             1659   114.941392E+06   -57.472148E+06   -57.472028E+06      -76.6013947    344.82816E+06      -16.4035454
             1660   114.943072E+06     -57.4711E+06   -57.470636E+06      -887.850342   344.827488E+06      -131.792068
             1661   114.945376E+06   -57.469684E+06   -57.471136E+06  -1.24163037E+03   344.827552E+06       81.6035385
             1662   114.948056E+06   -57.463256E+06   -57.466404E+06   3.34835400E+03     344.8264E+06       802.963562
             1663   114.949824E+06    -57.46362E+06   -57.466752E+06       834.750549   344.825856E+06      -395.907745
             1664   114.943704E+06   -57.470652E+06   -57.470628E+06      -141.055862   344.828096E+06      -162.516846
             1665   114.938264E+06   -57.474932E+06   -57.474376E+06       235.529541   344.829376E+06       302.232300
             1666   114.941784E+06   -57.472052E+06   -57.472568E+06   1.18061951E+03   344.828288E+06       654.155273
             1667   114.946872E+06     -57.4676E+06   -57.467136E+06       803.819153   344.828992E+06   1.20954712E+03
             1668   114.943192E+06   -57.470208E+06   -57.470352E+06       78.3396683   344.827744E+06      -131.416428
             1669   114.941816E+06   -57.471576E+06   -57.471256E+06       95.6058426   344.827328E+06       122.531731
             1670   114.941768E+06   -57.472084E+06   -57.471896E+06       96.9348679   344.828256E+06       834.748657
             1671   114.940856E+06    -57.47344E+06   -57.473136E+06      -5.33993387   344.828064E+06      -448.226013
             1672   114.943744E+06   -57.470004E+06   -57.469988E+06      -353.611816   344.827808E+06      -462.666290
             1673   114.941496E+06   -57.475856E+06   -57.475832E+06       814.428772   344.827936E+06      -484.425262
             1674   114.944184E+06   -57.469768E+06   -57.469852E+06      -314.260742   344.827968E+06       184.215027
             1675    114.93296E+06   -57.478636E+06   -57.476672E+06      -430.968872    344.83088E+06       830.478760
             1676   114.941624E+06   -57.472236E+06   -57.472232E+06       83.0640793      344.828E+06       97.6073227
             1677   114.945744E+06   -57.469028E+06    -57.47128E+06       824.046448   344.828448E+06      -191.451874
             1678   114.944432E+06   -57.469264E+06   -57.469024E+06      -160.611755     344.8272E+06       100.883415
             1679   114.941736E+06    -57.47262E+06   -57.472388E+06      -100.118439   344.828032E+06       108.918167
             1680   114.947912E+06   -57.466048E+06    -57.46652E+06      -249.541306   344.827648E+06       6.50767183
             1681   114.943568E+06    -57.47088E+06   -57.470784E+06       190.651962   344.827968E+06      -45.3312225
             1682   114.948136E+06    -57.46518E+06   -57.465216E+06   2.29704370E+03   344.824128E+06      -642.066650
             1683   114.943904E+06   -57.470596E+06   -57.470776E+06       135.523422   344.827936E+06       24.1709061
             1684   114.943296E+06   -57.470956E+06    -57.47106E+06      -224.573883   344.827648E+06      -233.328903
             1685    114.97064E+06   -57.449004E+06   -57.450076E+06   2.02448853E+03   344.825632E+06      -685.171631
             1686   114.942488E+06   -57.471652E+06   -57.473312E+06  -1.08299695E+03   344.829568E+06      -348.787994
             1687   114.940744E+06   -57.473572E+06    -57.47286E+06      -50.2186623   344.828128E+06      -69.5360947
             1688   114.943624E+06   -57.470136E+06   -57.469724E+06       34.7245598   344.828064E+06       200.671783
             1689   114.940216E+06   -57.472688E+06   -57.473104E+06       277.724243   344.828576E+06       903.070190
             1690   114.941616E+06   -57.471412E+06   -57.471832E+06      -68.0464249   344.827616E+06       68.7830811
             1691   114.940528E+06    -57.47294E+06   -57.472796E+06       126.049934   344.828384E+06      -83.5959396
             1692   114.943616E+06   -57.469964E+06   -57.470092E+06      -173.412109   344.827872E+06      -353.219940
             1693   114.940584E+06    -57.47248E+06     -57.4725E+06      -199.698944   344.827488E+06       44.7665253
             1694   114.941264E+06   -57.472168E+06   -57.471844E+06      -68.1313171   344.827808E+06       85.7734146
             1695   114.942496E+06   -57.471324E+06   -57.470928E+06       32.8029137    344.82832E+06      -221.446030
             1696    114.94432E+06   -57.469884E+06   -57.469644E+06      -44.7245522   344.827424E+06       126.077591
             1697   114.940744E+06   -57.470164E+06   -57.470008E+06       120.873779   344.828096E+06      -226.403809
             1698   114.944344E+06   -57.466968E+06    -57.47064E+06  -2.31609180E+03   344.825344E+06      -827.137634
             1699   114.944096E+06   -57.473888E+06   -57.473924E+06       275.669434   344.828736E+06  -1.34423914E+03
             1700    114.94948E+06    -57.46276E+06   -57.461784E+06   1.35996167E+03     344.8256E+06       166.009293
             1701   114.941072E+06   -57.476928E+06    -57.47774E+06      -895.167236   344.831392E+06      -696.015808
             1702   114.947392E+06    -57.46802E+06   -57.467888E+06      -501.803497   344.828448E+06       81.0567474
             1703   114.945312E+06   -57.468888E+06   -57.468728E+06       18.8961945   344.827424E+06       150.585907
             1704   114.935576E+06   -57.473732E+06   -57.472564E+06  -1.91042737E+03    344.82496E+06      -816.246582
             1705   114.941792E+06   -57.472128E+06   -57.471384E+06      -220.336823   344.828032E+06       183.063965
             1706   114.942984E+06   -57.470188E+06    -57.47006E+06      -87.0494614     344.8272E+06      -187.518356
             1707   114.936552E+06   -57.474788E+06   -57.478244E+06   1.32837842E+03   344.827296E+06      -992.564026
             1708   114.946856E+06   -57.468312E+06    -57.46766E+06       613.005676    344.82624E+06      -723.397766
             1709    114.94292E+06   -57.470932E+06   -57.471036E+06       6.04821682   344.827936E+06       8.15938663
             1710   114.943128E+06   -57.469996E+06   -57.468888E+06       971.534119   344.828544E+06       676.999512
             1711      114.943E+06    -57.47032E+06   -57.468884E+06       955.409851   344.828576E+06       593.764221
             1712   114.943792E+06   -57.470292E+06   -57.470472E+06       53.4148598   344.828192E+06      -28.5372772
             1713   114.992056E+06   -57.424864E+06   -57.425308E+06      -820.653870   344.819552E+06       669.404419
             1714   114.941408E+06   -57.472188E+06   -57.472476E+06       187.765289   344.827872E+06      -113.972237
             1715   114.948208E+06    -57.46662E+06   -57.467596E+06  -1.07835376E+03   344.825504E+06      -290.178864
             1716   114.951032E+06    -57.46336E+06   -57.462836E+06      -65.7984467   344.827456E+06       532.585083
             1717    114.90504E+06   -57.505384E+06    -57.50324E+06   2.02928101E+03   344.833472E+06      -992.299133
             1718   114.954696E+06   -57.458996E+06   -57.460256E+06   1.14838110E+03   344.828704E+06      -21.8538322
             1719      114.951E+06   -57.465104E+06   -57.462068E+06  -1.44675305E+03   344.826944E+06      -238.334976
             1720    114.95176E+06   -57.462588E+06   -57.463092E+06  -2.25797241E+03   344.826816E+06      -515.819214
             1721   114.942144E+06   -57.471836E+06    -57.47188E+06       155.605164   344.828032E+06      -76.3998718
             1722   114.928864E+06    -57.48116E+06   -57.480896E+06      -307.597137   344.827168E+06      -186.882019
             1723   114.943944E+06   -57.469808E+06   -57.468312E+06       476.143494   344.827744E+06       354.348907
             1724   114.940592E+06     -57.4727E+06    -57.47268E+06       547.313965   344.828128E+06       172.175766
             1725   114.937728E+06   -57.475324E+06   -57.478768E+06       880.371765   344.827872E+06   1.06901904E+03
             1726   114.955632E+06   -57.462296E+06   -57.462452E+06   1.22738171E+03   344.830912E+06      -420.916046
             1727   114.942032E+06   -57.472384E+06   -57.471088E+06       743.623413   344.828352E+06   1.56966467E+03
             1728   114.943344E+06   -57.470668E+06   -57.470632E+06      -272.844360   344.827776E+06       59.9774284
             1729     114.9412E+06   -57.472548E+06   -57.472632E+06       223.195236   344.828224E+06      -134.772827
             1730   114.942904E+06   -57.470188E+06    -57.47092E+06      -350.080170   344.827776E+06       541.106750
             1731   114.932248E+06    -57.48276E+06    -57.48352E+06      -749.471680    344.82992E+06   1.10068408E+03
             1732    114.94384E+06   -57.469496E+06   -57.469624E+06       96.4520035   344.827008E+06       587.453491
             1733   115.017528E+06   -57.404316E+06   -57.405088E+06   1.05947437E+03   344.817632E+06      -754.472168
             1734   114.913352E+06   -57.497932E+06   -57.498224E+06       143.451889   344.832384E+06      -395.485748
             1735   114.943704E+06   -57.469676E+06    -57.46974E+06       158.829636    344.82784E+06      -117.440773
             1736   114.944336E+06    -57.47322E+06   -57.474496E+06  -1.27239380E+03    344.82832E+06      -559.232056
             1737   114.981496E+06   -57.430448E+06   -57.426988E+06   1.75104358E+03   344.819872E+06       62.7239609
             1738   114.944768E+06       -57.47E+06   -57.469768E+06      -102.729446   344.827904E+06       180.107086
             1739   115.030896E+06   -57.396492E+06   -57.397692E+06   9.71091992E+03   344.823744E+06       946.909241
             1740   114.937648E+06   -57.475504E+06   -57.474812E+06       223.273285   344.828576E+06       169.634415
             1741   114.943448E+06   -57.470788E+06   -57.470796E+06       126.893066   344.828224E+06       126.121994
             1742   114.947648E+06     -57.4667E+06   -57.467376E+06       675.227966      344.828E+06       776.977173
             1743   114.943336E+06    -57.47072E+06   -57.470764E+06       82.5215302    344.82784E+06      -74.8948517
             1744   114.925352E+06   -57.486276E+06   -57.485108E+06   3.56304321E+03   344.829024E+06       374.539764
             1745   114.928184E+06    -57.48366E+06   -57.482432E+06  -5.41919434E+03   344.828448E+06       359.241577
             1746    114.94844E+06   -57.467472E+06   -57.465712E+06      -226.507950   344.828832E+06       186.836548
             1747   114.947624E+06   -57.467796E+06   -57.467304E+06       260.342712    344.82736E+06   1.16822400E+03
             1748    114.92508E+06    -57.48284E+06   -57.483788E+06       393.207855    344.82896E+06      -421.680450
             1749   114.943984E+06   -57.469324E+06   -57.469284E+06      -496.568817   344.826976E+06      -103.266930
             1750   114.938304E+06   -57.475236E+06    -57.47526E+06      -255.552338   344.828576E+06      -100.826508
             1751   114.946472E+06    -57.46838E+06    -57.46818E+06      -98.5630875   344.827616E+06      -36.7427177
             1752   114.978936E+06   -57.447684E+06   -57.446784E+06   2.46218115E+03    344.82576E+06   1.34256262E+03
             1753   114.943744E+06   -57.470044E+06   -57.469776E+06      -758.897888    344.82784E+06      -197.018188
             1754   114.940144E+06   -57.473536E+06    -57.47362E+06       276.795197   344.828416E+06      -134.250198
             1755   114.938064E+06   -57.474088E+06     -57.4764E+06      -764.191040   344.824672E+06      -13.2887878
             1756   114.949664E+06    -57.46472E+06    -57.46688E+06      -427.788727   344.828512E+06      -232.807358
             1757    114.94312E+06    -57.47176E+06   -57.470968E+06      -347.477936   344.828832E+06      -40.3427925
             1758     114.9298E+06   -57.477972E+06   -57.478928E+06  -1.82587646E+03      344.824E+06      -40.3947868
             1759   114.955216E+06   -57.458752E+06   -57.460624E+06  -4.52520557E+03   344.825632E+06      -171.963364
             1760   114.948624E+06     -57.4658E+06   -57.466696E+06       870.279846   344.828448E+06       106.717468
             1761   114.943912E+06   -57.473244E+06    -57.47328E+06      -85.2296753    344.83024E+06      -367.219971
             1762   114.943376E+06     -57.4703E+06   -57.470084E+06      -33.7182236   344.827392E+06      -165.209885
             1763   114.942784E+06   -57.471596E+06   -57.471792E+06      -146.881195   344.828288E+06      -494.813293
             1764   114.917664E+06   -57.492816E+06   -57.491208E+06  -7.11954443E+03   344.832512E+06      -524.900513
             1765     114.9442E+06    -57.47018E+06   -57.469832E+06       115.730759   344.828128E+06      -186.053146
             1766    114.94344E+06    -57.47162E+06   -57.470564E+06       195.810226   344.828896E+06       29.2844257
             1767   114.944912E+06    -57.46992E+06    -57.46952E+06      -135.065796   344.828416E+06      -458.488464
             1768    114.94368E+06   -57.470536E+06   -57.470372E+06       163.149460      344.828E+06      -27.4168530
             1769   114.929272E+06   -57.482364E+06   -57.480376E+06       755.176392   344.831584E+06       692.632202
             1770   114.968184E+06   -57.451004E+06   -57.449856E+06      -87.1934891   344.829664E+06   1.18654968E+03
             1771     114.9416E+06   -57.472312E+06    -57.47224E+06       70.2540207   344.827968E+06       50.5787926
             1772   114.943744E+06   -57.470492E+06   -57.470372E+06      -395.355560    344.82784E+06      -94.8446884
             1773   114.938216E+06   -57.474736E+06   -57.475332E+06      -102.032524   344.828384E+06       275.864563
             1774    114.94424E+06    -57.47008E+06     -57.4701E+06       93.9435654    344.82784E+06       77.9125595
             1775   114.945144E+06   -57.469192E+06    -57.46928E+06      -251.247360   344.827456E+06      -87.4134750
             1776   114.944088E+06   -57.470036E+06   -57.469904E+06       13.4915438   344.827968E+06       52.3759193
             1777   114.941904E+06   -57.471116E+06   -57.471444E+06      -140.045807   344.827296E+06      -263.157135
             1778   114.959152E+06   -57.459452E+06   -57.457676E+06      -916.653381   344.830592E+06      -934.597656
             1779    114.94304E+06    -57.47116E+06    -57.47118E+06      -20.6344585   344.827904E+06      -41.3077011
             1780   114.942072E+06   -57.471968E+06   -57.471888E+06      -80.2772675   344.828032E+06       100.623718
             1781   114.941776E+06   -57.472208E+06   -57.471876E+06      -40.9790001   344.828288E+06      -197.795670
             1782   114.918464E+06   -57.487832E+06   -57.488256E+06   9.25567676E+03   344.823584E+06       564.933228
             1783   114.883184E+06   -57.523252E+06   -57.522504E+06   1.91180029E+03   344.835968E+06       686.504211
             1784   114.945632E+06   -57.469076E+06   -57.468756E+06      -321.908447    344.82816E+06      -139.438904
             1785   114.897264E+06   -57.514288E+06   -57.513252E+06  -6.21803760E+03   344.836576E+06       460.384491
             1786   114.944688E+06    -57.47004E+06    -57.47004E+06       446.257477   344.828352E+06      -8.01698399
             1787    114.94296E+06   -57.470728E+06   -57.470464E+06       10.5515614   344.827968E+06      -183.456726
             1788   114.945872E+06   -57.468264E+06   -57.469528E+06   1.13294067E+03    344.82608E+06      -48.0458450
             1789   114.942568E+06   -57.471888E+06   -57.471888E+06       79.7249756    344.82832E+06      -246.130646
             1790     114.9466E+06   -57.467068E+06    -57.46636E+06       68.6875534   344.827296E+06       941.012207
             1791      114.946E+06   -57.465092E+06   -57.466384E+06       691.614746    344.82688E+06       929.770447
             1792   114.922496E+06    -57.48502E+06     -57.4846E+06  -1.59211218E+03   344.826336E+06      -258.916504
             1793    114.93936E+06   -57.473384E+06   -57.473468E+06      -732.726685   344.827456E+06      -14.0550432
             1794    114.92052E+06   -57.487524E+06   -57.487456E+06  -2.28434717E+03    344.82592E+06      -231.917023
             1795   114.942712E+06    -57.47086E+06   -57.470824E+06       157.677216   344.827712E+06       2.44255424
             1796   114.943384E+06   -57.470576E+06   -57.470292E+06       12.2471495   344.828032E+06      -124.964836
             1797    114.94612E+06   -57.466488E+06    -57.46686E+06  -4.29850830E+03   344.824352E+06       370.530579
             1798      114.924E+06   -57.488528E+06   -57.487132E+06   1.80605090E+03   344.833152E+06       530.121582
             1799    114.96276E+06   -57.448224E+06   -57.446516E+06   1.57256885E+03    344.82208E+06   1.18699158E+03
             1800   114.944176E+06   -57.469972E+06   -57.469836E+06      -36.5709572   344.828352E+06      -397.428589
             1801   114.944816E+06   -57.469332E+06   -57.469348E+06      -76.8360138   344.827648E+06       200.640778
             1802   114.931368E+06   -57.478316E+06   -57.480524E+06       577.207397   344.829472E+06       212.502686
             1803   114.935904E+06   -57.472412E+06   -57.471564E+06      -657.212524   344.828064E+06  -1.06898694E+03
             1804   114.920344E+06   -57.497468E+06   -57.498852E+06  -3.56156201E+03   344.836416E+06       994.563965
             1805   114.882728E+06   -57.516592E+06     -57.5174E+06   2.00282397E+03   344.825152E+06      -741.539063
             1806   114.945888E+06   -57.468132E+06   -57.468192E+06       113.759605    344.82752E+06      -151.360107
             1807   114.943624E+06   -57.470448E+06   -57.470516E+06      -180.502182   344.827168E+06      -326.800812
             1808   114.932024E+06    -57.47614E+06   -57.477336E+06  -1.83967102E+03   344.826656E+06       691.350220
             1809   114.894584E+06   -57.508028E+06   -57.506764E+06  -4.76175342E+03   344.833184E+06      -372.695892
             1810   114.943768E+06   -57.471312E+06   -57.470444E+06      -264.193634   344.829408E+06      -10.2601843
             1811     114.9464E+06    -57.46732E+06   -57.467352E+06      -833.688904   344.826912E+06      -67.3258972
             1812   114.934752E+06    -57.48062E+06    -57.48046E+06       501.738190   344.828992E+06   1.09396228E+03
             1813     114.9434E+06   -57.470644E+06   -57.470396E+06      -188.862183   344.828256E+06      -163.266388
             1814   114.943528E+06     -57.4708E+06   -57.470728E+06       458.406403    344.82816E+06      -65.4225922
             1815    114.94636E+06    -57.46816E+06   -57.468156E+06       40.0989265   344.827584E+06       97.9248505
             1816   114.949032E+06    -57.46684E+06   -57.466736E+06  -2.79610376E+03   344.828288E+06       197.399399
             1817    114.94312E+06    -57.47082E+06   -57.469928E+06   2.68560327E+03    344.83024E+06       443.267914
             1818   114.945912E+06     -57.4695E+06   -57.469028E+06  -2.16018823E+03   344.826784E+06       699.872070
             1819   114.938008E+06   -57.474016E+06   -57.477024E+06   1.03516248E+03   344.825856E+06       192.936142
             1820   114.940472E+06    -57.47324E+06   -57.473296E+06       357.650757   344.828512E+06      -151.276917
             1821   114.970168E+06   -57.448428E+06   -57.449404E+06   5.80281104E+03   344.824768E+06       81.1033859
             1822   114.957088E+06    -57.45848E+06   -57.458576E+06   2.36012085E+03   344.825408E+06       262.247803
             1823   114.928032E+06   -57.486648E+06    -57.48756E+06  -1.90611194E+03    344.83328E+06   1.15499023E+03
             1824   114.943136E+06   -57.471216E+06   -57.471032E+06       543.255188   344.828576E+06      -198.423782
             1825   114.967264E+06   -57.452816E+06   -57.453532E+06  -4.85192725E+03   344.829888E+06  -1.01647076E+03
             1826   114.936464E+06   -57.472796E+06    -57.47546E+06  -1.08540759E+03   344.824064E+06      -972.511658
             1827   114.940328E+06   -57.472632E+06   -57.473204E+06       287.473389   344.827968E+06      -352.170197
             1828    114.95032E+06   -57.463644E+06   -57.463888E+06   2.34987964E+03   344.829312E+06      -526.473938
             1829   114.929304E+06   -57.487244E+06   -57.485304E+06   1.53708362E+03    344.82912E+06   1.30633557E+03
             1830    114.96648E+06   -57.457072E+06   -57.455748E+06  -4.03687744E+03     344.8328E+06       106.067291
             1831   114.938072E+06   -57.473036E+06   -57.474628E+06  -1.17742627E+03   344.826656E+06      -340.769806
             1832   114.947864E+06   -57.464764E+06   -57.465956E+06       289.607056   344.828512E+06       489.913727
             1833   114.957608E+06   -57.453632E+06   -57.451056E+06      -573.800232   344.823328E+06   1.66859546E+03
             1834   114.958584E+06   -57.450084E+06     -57.4509E+06  -1.74384521E+03   344.823936E+06   1.78037866E+03
             1835   114.953672E+06   -57.460928E+06   -57.460752E+06      -371.767181   344.826208E+06      -201.759781
             1836   114.940064E+06   -57.473504E+06   -57.472844E+06       84.8955536   344.827904E+06       198.357513
             1837    114.94652E+06    -57.46688E+06   -57.467572E+06      -635.556885   344.827296E+06      -507.154907
             1838   114.941448E+06    -57.47252E+06    -57.47254E+06       211.632462   344.827904E+06      -264.065002
             1839   114.928384E+06    -57.48198E+06   -57.482424E+06   1.30742725E+03    344.82816E+06      -161.770828
             1840   114.936656E+06    -57.47884E+06   -57.478728E+06       409.089294    344.82864E+06   1.09479712E+03
             1841    114.93292E+06     -57.4816E+06   -57.478752E+06      -516.382751   344.829984E+06       601.812805
             1842   114.934832E+06   -57.477912E+06   -57.476164E+06   2.62446655E+03   344.828128E+06       213.199982
             1843    114.93088E+06   -57.480508E+06    -57.48422E+06      -298.831085   344.830432E+06   1.44181543E+03
             1844   114.941312E+06   -57.471612E+06   -57.472688E+06      -118.868759   344.827392E+06      -517.240784
             1845    114.95028E+06    -57.46286E+06   -57.463784E+06  -1.72667529E+03   344.828736E+06       256.140472
             1846   114.945696E+06   -57.468136E+06   -57.467612E+06      -383.944824   344.828128E+06      -374.306458
             1847   114.950128E+06   -57.461468E+06   -57.460408E+06      -561.279663   344.825504E+06      -308.431366
             1848   114.937888E+06   -57.474608E+06   -57.474236E+06       268.649078    344.82672E+06       615.509766
             1849   114.978096E+06   -57.441428E+06   -57.440272E+06  -2.58549854E+03    344.82384E+06      -81.7651062
             1850   114.944904E+06   -57.465808E+06    -57.46602E+06      -679.806152    344.82656E+06       338.161102
             1851    114.92048E+06   -57.491428E+06    -57.49178E+06   3.19171094E+03   344.829088E+06      -276.674927
             1852   114.955152E+06   -57.463884E+06   -57.464216E+06   5.06183301E+03   344.828544E+06      -706.796204
             1853   114.884232E+06   -57.514552E+06   -57.513468E+06      -711.572510   344.829632E+06       504.567474
             1854   114.948152E+06   -57.465632E+06   -57.466152E+06       916.513184   344.827904E+06       1.79627287
             1855   114.943192E+06   -57.470576E+06   -57.469884E+06   1.00645343E+03   344.828576E+06       478.243408
             1856    114.95512E+06    -57.46276E+06    -57.46248E+06      -702.162231   344.829248E+06       156.305420
             1857    114.94216E+06    -57.47218E+06    -57.47144E+06      -20.6033077   344.828672E+06      -250.079086
             1858   114.928008E+06   -57.480924E+06   -57.481284E+06   1.66356445E+03    344.82688E+06       440.635651
             1859   114.957872E+06   -57.463692E+06   -57.464168E+06   1.77559717E+03   344.828896E+06       566.318970
             1860   114.952088E+06   -57.463272E+06    -57.46072E+06   1.99907166E+03   344.823552E+06      -5.66754293
             1861   114.937928E+06   -57.473944E+06   -57.475172E+06      -427.901215   344.827328E+06       205.184830
             1862   114.942416E+06   -57.471264E+06   -57.471032E+06       116.017723   344.828096E+06      -17.9122467
             1863    114.93276E+06    -57.47538E+06   -57.478212E+06      -48.8130150   344.828672E+06       471.956421
             1864   114.936864E+06    -57.47236E+06   -57.471004E+06   1.84884167E+03    344.82832E+06      -96.6062775
             1865   114.941312E+06   -57.470784E+06   -57.469792E+06      -268.243073   344.828032E+06      -168.898743
             1866   114.941096E+06   -57.472504E+06    -57.47266E+06       260.333191   344.828064E+06       141.174164
             1867   114.918032E+06     -57.4907E+06   -57.490592E+06   2.82206616E+03    344.83152E+06       777.637817
             1868    114.93892E+06   -57.475688E+06   -57.475668E+06       455.186035   344.827616E+06   1.25762769E+03
             1869   114.938536E+06   -57.474096E+06    -57.47288E+06       938.711304    344.82784E+06       22.5631161
             1870   114.937416E+06   -57.477732E+06   -57.475716E+06  -3.24749097E+03   344.831488E+06   1.19791785E+03
             1871   114.885008E+06   -57.518484E+06   -57.517316E+06   11.8778008E+03   344.830848E+06      -783.225464
             1872   114.947024E+06   -57.465544E+06   -57.464488E+06       126.054665   344.827776E+06      -62.0649910
             1873   114.941816E+06   -57.471408E+06   -57.471692E+06       12.3108177   344.828032E+06      -157.050125
             1874   114.952432E+06   -57.461972E+06   -57.463912E+06  -6.01088086E+03   344.825312E+06   1.05855139E+03
             1875   114.940528E+06   -57.474328E+06   -57.474832E+06       192.963165   344.828128E+06      -551.704346
             1876   114.961208E+06   -57.454364E+06   -57.456308E+06  -2.04765466E+03    344.82496E+06      -15.0702763
             1877    114.97132E+06   -57.445476E+06   -57.446784E+06  -3.78171240E+03   344.823808E+06   1.84168323E+03
             1878    114.94344E+06   -57.470568E+06     -57.4708E+06      -316.772858   344.828032E+06      -93.3405914
             1879   114.948488E+06   -57.465548E+06   -57.464644E+06       272.081757    344.82688E+06      -943.308777
             1880   114.941808E+06   -57.473096E+06   -57.471632E+06      -26.5000839   344.828032E+06      -217.522797
             1881    114.94032E+06   -57.474676E+06      -57.474E+06       313.124878      344.828E+06       186.077103
             1882   114.942432E+06   -57.471484E+06   -57.471616E+06       247.312592   344.827968E+06       51.7942314
             1883   114.945216E+06   -57.468568E+06   -57.467612E+06       499.429108   344.827456E+06      -922.184631
             1884   114.943192E+06   -57.470856E+06   -57.470848E+06      -138.453583   344.828064E+06      -176.649994
             1885   114.941088E+06   -57.472524E+06   -57.472244E+06      -98.1560516   344.828256E+06      -57.9212837
             1886   114.944296E+06   -57.469108E+06    -57.46984E+06       167.838242   344.827136E+06      -149.390945
             1887   114.942456E+06   -57.471328E+06   -57.471476E+06      -3.64446568   344.827808E+06       24.3629837
             1888   114.942968E+06   -57.470792E+06   -57.471292E+06       165.333588    344.82768E+06      -185.935989
             1889   114.975104E+06   -57.449088E+06   -57.448784E+06   1.67524219E+03   344.827648E+06      -346.131012
             1890   114.942256E+06   -57.471156E+06   -57.470968E+06      -174.881943    344.82768E+06       112.436996
             1891   114.940376E+06   -57.477636E+06   -57.478284E+06       385.995483   344.832576E+06      -271.254028
             1892   114.950384E+06   -57.464944E+06   -57.464912E+06      -825.124634    344.82816E+06  -1.01078943E+03
             1893   114.941096E+06   -57.472592E+06   -57.472304E+06      -109.367699   344.828032E+06       136.995483
             1894   114.939352E+06   -57.473024E+06   -57.473716E+06       51.0558891   344.827392E+06      -140.005981
             1895   114.945096E+06   -57.469432E+06   -57.467992E+06       198.813339   344.828608E+06       126.986038
             1896   114.919208E+06   -57.488256E+06   -57.488504E+06  -1.21723169E+03    344.82624E+06       268.867920
             1897   114.952304E+06   -57.460944E+06   -57.459612E+06  -1.67533252E+03   344.825568E+06      -628.883362
             1898   114.935088E+06    -57.47902E+06   -57.478024E+06      -465.051697   344.828448E+06   1.10264319E+03
             1899   114.952288E+06   -57.466624E+06   -57.465664E+06       937.143616    344.82816E+06      -581.265442
             1900   114.951264E+06   -57.466904E+06   -57.466968E+06      -419.845428   344.827392E+06  -1.27835669E+03
             1901   114.955848E+06   -57.460652E+06   -57.462352E+06  -3.22274390E+03   344.830656E+06      -842.729553
             1902   114.950496E+06    -57.46488E+06   -57.464424E+06      -49.9075165   344.827168E+06      -145.008408
             1903   114.941648E+06   -57.471464E+06   -57.471244E+06       299.389496    344.82752E+06       250.634979
             1904   114.953736E+06    -57.46676E+06   -57.467644E+06   8.58488965E+03   344.833312E+06      -353.271790
             1905    114.94356E+06   -57.469896E+06   -57.469372E+06      -46.0434418    344.82768E+06      -83.3109436
             1906   114.946856E+06   -57.469092E+06   -57.468068E+06      -700.353271   344.826464E+06      -802.833862
             1907    114.94628E+06   -57.470168E+06   -57.471268E+06       379.708832   344.827936E+06       563.663696
             1908   114.949048E+06   -57.464304E+06   -57.463864E+06      -168.278809    344.82672E+06       586.910339
             1909   114.943544E+06   -57.469328E+06   -57.469716E+06  -6.14354883E+03   344.824608E+06      -594.329895
             1910     114.9084E+06   -57.499196E+06   -57.500144E+06   2.10981958E+03   344.827328E+06       503.345276
             1911   114.944248E+06   -57.468036E+06    -57.46766E+06   1.75992249E+03    344.82576E+06       136.970123
             1912     114.9974E+06   -57.425648E+06    -57.43016E+06   6.17523437E+03   344.824864E+06      -281.403076
             1913   114.972712E+06   -57.441264E+06   -57.440156E+06  -2.93487891E+03   344.822176E+06      -420.896790
             1914     114.9434E+06   -57.469936E+06     -57.4694E+06      -89.3032990   344.827872E+06      -429.681976
             1915   114.942384E+06   -57.470136E+06   -57.470984E+06       137.397278   344.828768E+06       24.1677818
             1916   114.942928E+06   -57.470464E+06   -57.470188E+06      -107.778618   344.827808E+06      -103.969566
             1917   114.944608E+06   -57.469784E+06   -57.469516E+06      -137.048737   344.828256E+06      -94.5011978
             1918   114.943864E+06   -57.470132E+06   -57.470184E+06       661.137085   344.827968E+06       758.862549
             1919   114.848112E+06   -57.547096E+06   -57.547252E+06   1.78683752E+03   344.830496E+06      -290.481903
             1920     114.9438E+06   -57.470312E+06   -57.469816E+06       34.3210831    344.82816E+06      -241.290543
             1921   114.942224E+06   -57.471756E+06   -57.471672E+06      -185.790695   344.827904E+06      -40.2706718
             1922     114.9428E+06   -57.463964E+06   -57.464428E+06  -1.37944568E+03   344.824096E+06  -1.32285083E+03
             1923   114.943632E+06    -57.47048E+06     -57.4701E+06       3.64436793    344.82816E+06      -138.344940
             1924   114.949368E+06   -57.467384E+06   -57.466968E+06   1.60296851E+03    344.82816E+06       773.176086
             1925   114.942592E+06    -57.47144E+06   -57.471148E+06       170.856827   344.828224E+06      -175.061005
             1926   114.919336E+06   -57.493908E+06    -57.49476E+06  -2.13380029E+03   344.833088E+06      -238.684525
             1927   114.944152E+06   -57.469688E+06   -57.471068E+06  -1.23942749E+03   344.826944E+06      -189.574142
             1928   114.939136E+06    -57.47794E+06    -57.47882E+06      -629.003357   344.830112E+06  -1.67187085E+03
             1929   114.942496E+06   -57.471676E+06   -57.471804E+06      -155.278442   344.827776E+06      -309.333130
             1930   114.941056E+06    -57.47204E+06    -57.47246E+06       57.8381729   344.828096E+06      -160.224915
             1931   114.942464E+06    -57.47144E+06   -57.471204E+06       88.6337433      344.828E+06       208.431000
             1932   114.942736E+06   -57.471376E+06   -57.471008E+06       7.95047331   344.828192E+06      -115.659691
             1933   114.941144E+06   -57.472448E+06   -57.472596E+06       259.720917   344.828064E+06       144.729630
             1934     114.9422E+06    -57.47262E+06   -57.472404E+06       440.510101    344.82864E+06       177.796600
             1935   114.943472E+06   -57.474056E+06   -57.474212E+06      -233.197037   344.831904E+06       81.5932007
             1936   114.943024E+06     -57.4707E+06    -57.47052E+06       21.4217720   344.827712E+06       72.0272293
             1937   114.954456E+06   -57.460636E+06   -57.460308E+06  -1.11889209E+03   344.824544E+06      -100.556511
             1938   114.942544E+06    -57.47262E+06    -57.47336E+06      -747.089539   344.827552E+06   1.09798364E+03
             1939    114.94336E+06    -57.47086E+06   -57.470512E+06       20.4667816   344.828128E+06      -47.2316360
             1940   114.937928E+06   -57.474408E+06   -57.474672E+06  -1.38031958E+03   344.829824E+06       266.560150
             1941    114.94128E+06    -57.47206E+06   -57.472296E+06       82.6223297   344.828128E+06      -194.250305
             1942   114.942464E+06   -57.471392E+06   -57.471088E+06      -65.0518646   344.827936E+06       24.9991741
             1943   114.942432E+06   -57.471452E+06    -57.47194E+06       43.1469688   344.827712E+06      -207.336731
             1944   114.942096E+06   -57.470816E+06   -57.471136E+06      -57.2791824   344.827584E+06      -114.339470
             1945   114.942528E+06    -57.47142E+06    -57.47138E+06      -22.6126404   344.827936E+06       26.7407513
             1946     114.9426E+06   -57.475236E+06   -57.474504E+06   1.34592505E+03   344.828192E+06      -985.649780
             1947   114.947336E+06   -57.467424E+06   -57.467232E+06       170.039337   344.827488E+06       110.834549
             1948   114.924528E+06     -57.4843E+06   -57.485212E+06   3.14510986E+03   344.825408E+06       76.4694443
             1949   114.940816E+06    -57.47646E+06   -57.476964E+06       194.313583   344.829312E+06  -1.15252917E+03
             1950   114.931704E+06   -57.479812E+06   -57.480296E+06  -2.25622217E+03   344.830176E+06   1.24178735E+03
             1951   114.943144E+06    -57.47236E+06   -57.472604E+06       438.103424   344.827776E+06       368.542877
             1952   114.941512E+06   -57.469348E+06     -57.4701E+06  -1.13212195E+03   344.827936E+06       944.212830
             1953   114.957424E+06   -57.460056E+06   -57.461184E+06      -861.619568   344.827296E+06       186.043335
             1954   114.942376E+06    -57.47122E+06   -57.471596E+06       216.991547   344.827968E+06      -119.828110
             1955   114.943968E+06   -57.469628E+06   -57.469668E+06      -278.321014   344.827552E+06       160.865128
             1956   114.986648E+06   -57.434924E+06   -57.436512E+06   2.59081396E+03   344.824128E+06       935.539734
             1957   114.943448E+06      -57.471E+06   -57.470956E+06      -53.1055565   344.828064E+06       84.3364639
             1958   114.903904E+06   -57.502592E+06   -57.500612E+06      -108.971214   344.830496E+06      -942.002014
             1959   114.944976E+06    -57.46916E+06   -57.468372E+06      -345.160553   344.827424E+06       268.675873
             1960   114.940648E+06    -57.47288E+06   -57.472924E+06      -449.651733   344.827968E+06      -106.212410
             1961   114.939992E+06     -57.4744E+06   -57.473452E+06       193.270187    344.82816E+06      -466.596497
             1962   114.949552E+06   -57.464672E+06   -57.464168E+06      -614.286621   344.826368E+06       985.242310
             1963   114.949168E+06    -57.46332E+06   -57.464668E+06   1.62286670E+03   344.827136E+06       320.641235
             1964    114.94308E+06   -57.470992E+06   -57.470876E+06      -3.99761081   344.828032E+06      -13.5415220
             1965   114.931888E+06   -57.478256E+06   -57.476484E+06  -2.48643018E+03    344.82784E+06       208.003525
             1966   114.940992E+06   -57.472472E+06   -57.473292E+06   1.23007385E+03   344.828352E+06   1.48646680E+03
             1967    114.94064E+06    -57.47434E+06   -57.475824E+06   1.59095679E+03   344.829088E+06      -533.216614
             1968   114.947416E+06   -57.466756E+06   -57.465272E+06   3.11632349E+03   344.825984E+06       34.9664078
             1969   114.943048E+06   -57.470032E+06    -57.47022E+06       919.537231   344.827648E+06      -13.1673460
             1970   114.937584E+06   -57.475328E+06   -57.475388E+06       70.9560394    344.82816E+06      -202.431702
             1971   114.939656E+06   -57.474976E+06   -57.476164E+06       197.766800   344.827744E+06      -162.534698
             1972   114.912512E+06   -57.492304E+06   -57.493512E+06   2.12107861E+03    344.82112E+06   1.41231970E+03
             1973   114.936256E+06   -57.474392E+06   -57.474728E+06  -7.86838135E+03   344.826752E+06      -544.344238
             1974    114.90164E+06   -57.504576E+06   -57.504892E+06  -8.49915918E+03   344.830176E+06      -531.391479
             1975   114.904864E+06   -57.503064E+06   -57.502284E+06   4.96844629E+03   344.830304E+06       536.549805
             1976   114.952848E+06   -57.460632E+06   -57.460612E+06      -360.047028   344.825248E+06   1.95169458E+03
             1977   114.952976E+06   -57.462048E+06   -57.462524E+06  -3.85961719E+03    344.82848E+06   1.59281299E+03
             1978    114.93128E+06   -57.485992E+06   -57.489908E+06       789.509033   344.830016E+06       350.934753
             1979   114.936024E+06   -57.474556E+06   -57.474112E+06  -2.96247632E+03    344.82864E+06   2.05620483E+03
             1980   114.920624E+06     -57.4882E+06   -57.488772E+06      -297.054413   344.830432E+06       438.786133
             1981   114.937856E+06   -57.475204E+06   -57.475196E+06      -138.748489   344.828096E+06      -6.25165510
             1982    114.93844E+06    -57.47592E+06   -57.476612E+06      -86.2344818   344.828992E+06      -182.798248
             1983   114.939376E+06   -57.473652E+06   -57.473364E+06      -206.504044   344.827168E+06       537.353027
             1984   114.949736E+06   -57.466876E+06   -57.467732E+06      -863.040039   344.828064E+06  -1.17522510E+03
             1985   114.951072E+06   -57.465828E+06   -57.466508E+06      -179.968246   344.828192E+06      -689.364868
             1986     114.9516E+06   -57.463244E+06   -57.463868E+06   2.09215918E+03   344.827904E+06       768.333679
             1987    114.92348E+06   -57.482224E+06   -57.482704E+06  -3.99241309E+03    344.82544E+06       356.731689
             1988   114.935304E+06   -57.479652E+06   -57.479576E+06  -2.36125366E+03   344.830528E+06       118.729111
             1989   114.952664E+06    -57.46352E+06   -57.462528E+06   1.75686829E+03   344.826304E+06       191.746445
             1990    114.94228E+06   -57.469572E+06    -57.46928E+06   1.32190564E+03   344.826816E+06       563.061523
             1991   114.937864E+06   -57.474224E+06   -57.476516E+06   1.42186365E+03   344.826208E+06   1.04610193E+03
             1992   114.947024E+06   -57.467644E+06   -57.468856E+06   6.60019092E+03   344.825504E+06       846.614197
             1993    114.94412E+06    -57.46998E+06     -57.4696E+06      -149.252899   344.827648E+06      -207.195801
             1994   114.944456E+06   -57.469632E+06   -57.468652E+06      -138.380814   344.827776E+06       325.282715
             1995   114.955704E+06   -57.464048E+06   -57.461552E+06   1.03189819E+03   344.830464E+06       231.868591
             1996   114.944296E+06   -57.468656E+06    -57.46786E+06      -160.823288   344.827072E+06      -147.299210
             1997   114.945032E+06   -57.470152E+06   -57.468816E+06       153.438812   344.827552E+06      -622.935913
             1998   114.948928E+06    -57.46398E+06   -57.465048E+06  -5.42146680E+03    344.82624E+06   1.24127087E+03
             1999   114.983032E+06   -57.439988E+06   -57.439892E+06       260.876923    344.82784E+06      -516.505493
             2000   114.929216E+06   -57.487144E+06   -57.487908E+06       73.7076569   344.833312E+06       474.713409
             2001   114.942448E+06   -57.471104E+06   -57.471664E+06      -317.490295   344.828448E+06      -53.4586678
             2002   114.952072E+06   -57.466596E+06   -57.465492E+06      -110.819809   344.829888E+06  -1.04415210E+03
             2003   114.942632E+06   -57.471544E+06   -57.471836E+06       139.682953   344.828128E+06       122.004494
             2004    114.94196E+06   -57.471716E+06    -57.47178E+06       195.676590    344.82784E+06       32.8773232
             2005   114.939488E+06   -57.474088E+06   -57.474052E+06      -133.605103   344.828096E+06       167.132370
             2006   114.943672E+06   -57.470432E+06   -57.469952E+06       376.877289   344.828032E+06       3.69698620
             2007    114.94276E+06   -57.471244E+06   -57.471388E+06       158.529221   344.828256E+06       20.8768768
             2008   114.945248E+06   -57.469648E+06   -57.469144E+06       40.5548058   344.828128E+06       148.208359
             2009   114.947552E+06   -57.467348E+06   -57.467416E+06      -635.631531   344.827904E+06       67.0340042
             2010   114.942744E+06   -57.470992E+06   -57.470536E+06       622.820557   344.828576E+06       347.272614
             2011   114.942968E+06    -57.46822E+06   -57.467648E+06      -140.078568   344.825632E+06       306.360687
             2012   114.939616E+06   -57.472924E+06   -57.472756E+06       181.934631   344.826944E+06      -44.5940781
             2013   114.940768E+06   -57.473512E+06   -57.474016E+06       69.1972351   344.827904E+06       283.590790
             2014   114.943184E+06   -57.470852E+06   -57.470932E+06      -226.355927   344.828064E+06       235.931335
             2015   114.940216E+06    -57.47236E+06    -57.47222E+06       90.2985458    344.82688E+06      -47.2178154
             2016   114.950728E+06   -57.460828E+06   -57.462372E+06      -634.254639   344.828064E+06       128.393906
             2017   114.943296E+06    -57.47082E+06   -57.471088E+06       68.1620407   344.827744E+06       47.4661522
             2018    114.94436E+06   -57.469872E+06   -57.469884E+06       97.6711884   344.828032E+06       174.308228
             2019   114.943856E+06   -57.470196E+06   -57.470468E+06       98.4747314   344.827776E+06       100.560005
             2020   114.942336E+06   -57.471212E+06   -57.471216E+06       31.1618061   344.827552E+06       47.3258934
             2021   114.903776E+06   -57.500956E+06   -57.502312E+06   1.95522449E+03   344.828608E+06   1.20024597E+03
             2022   114.946064E+06   -57.469008E+06    -57.46904E+06      -20.8682251    344.82768E+06      -209.339157
             2023   114.946112E+06   -57.468836E+06   -57.468632E+06       359.587280   344.828032E+06      -205.169632
             2024   114.943672E+06   -57.470428E+06    -57.47052E+06       164.116730   344.828032E+06       102.864998
             2025   114.942784E+06   -57.471144E+06   -57.471316E+06      -15.0986300   344.828192E+06       13.4771042
             2026    114.94316E+06   -57.470796E+06   -57.470828E+06       42.9798393   344.828032E+06      -71.4632721
             2027   114.944192E+06    -57.46734E+06    -57.46938E+06      -620.010132   344.825184E+06      -27.7757511
             2028   114.938288E+06    -57.47502E+06   -57.474804E+06   1.37777136E+03   344.831424E+06       173.243362
             2029   114.934384E+06   -57.477192E+06      -57.478E+06       612.142273    344.82896E+06      -824.911072
             2030   114.946072E+06   -57.469116E+06   -57.468708E+06       171.923019   344.827584E+06      -132.894028
             2031   114.943624E+06   -57.470304E+06    -57.47036E+06       62.7026100   344.827872E+06      -94.2796936
             2032   114.945184E+06    -57.47026E+06    -57.46966E+06       114.824554    344.82784E+06       27.5910740
             2033   114.939808E+06   -57.475336E+06   -57.474296E+06       730.218628   344.828864E+06      -308.745514
             2034   114.938336E+06   -57.472996E+06   -57.472708E+06       58.1274261   344.827712E+06  -1.42551733E+03
             2035   114.935872E+06   -57.476412E+06   -57.476096E+06   1.34705676E+03    344.82832E+06      -125.779243
             2036   114.940912E+06   -57.470212E+06     -57.4698E+06  -1.87126013E+03   344.828384E+06      -792.709412
             2037   114.939688E+06   -57.474852E+06   -57.475052E+06      -53.9356613   344.828832E+06      -542.098572
             2038   114.941096E+06   -57.473624E+06   -57.474788E+06  -2.01650061E+03      344.828E+06       684.247803
             2039   114.944448E+06   -57.469544E+06   -57.469856E+06      -124.798325   344.827264E+06       93.9471359
             2040   114.942728E+06   -57.471172E+06   -57.470816E+06       16.9609451      344.828E+06      -138.229996
             2041   114.942448E+06   -57.470768E+06   -57.470592E+06      -74.3327560   344.826976E+06      -36.3271637
             2042   114.942328E+06   -57.471248E+06    -57.47128E+06      -96.6603928    344.82752E+06      -120.882195
             2043   114.942872E+06   -57.471124E+06   -57.470976E+06       186.362000   344.827776E+06      -81.6624832
             2044   114.943336E+06   -57.470416E+06   -57.469904E+06       78.2767410      344.828E+06       51.1077881
             2045   114.943056E+06   -57.470804E+06   -57.470412E+06       26.9896755      344.828E+06      -99.3730774
             2046   114.942416E+06    -57.47144E+06   -57.471192E+06       59.1946983   344.827968E+06      -58.6281319
             2047   114.942568E+06     -57.4713E+06   -57.470736E+06       225.175293   344.828032E+06       155.340820
             2048    114.94524E+06   -57.468356E+06   -57.468124E+06      -298.313141   344.827744E+06       358.573212
             2049   114.942768E+06   -57.471036E+06   -57.470972E+06       9.43167782   344.827936E+06      -91.0287704
             2050   114.943184E+06   -57.470788E+06   -57.470848E+06       132.783249   344.828032E+06       62.5299568
             2051   114.971896E+06   -57.449132E+06   -57.448788E+06  -3.52558252E+03   344.826656E+06      -330.475830
             2052   114.939376E+06   -57.473744E+06   -57.473864E+06      -235.005600    344.82816E+06       239.372986
             2053   114.943696E+06   -57.471308E+06   -57.470576E+06  -1.29181470E+03    344.82752E+06       78.8159103
             2054   114.962464E+06   -57.453416E+06   -57.453872E+06  -3.06451733E+03    344.82272E+06      -825.290771
             2055   114.941768E+06   -57.472372E+06   -57.472512E+06      -16.4800777    344.82832E+06       63.6558075
             2056   114.931296E+06   -57.483668E+06   -57.483636E+06  -2.03881482E+03   344.831584E+06       135.599701
             2057    114.94552E+06   -57.467992E+06   -57.467876E+06      -997.325012   344.827104E+06      -278.089722
             2058   114.934816E+06   -57.479212E+06   -57.478288E+06      -959.836609   344.828832E+06      -977.677979
             2059   114.939736E+06   -57.474852E+06   -57.473628E+06  -1.64347546E+03   344.827488E+06      -469.030182
             2060   114.941256E+06   -57.473168E+06   -57.472624E+06      -254.460358    344.82912E+06       521.706238
             2061    114.94164E+06   -57.472436E+06   -57.472716E+06      -894.735107   344.829056E+06      -556.360596
             2062   114.946296E+06   -57.468256E+06    -57.46788E+06      -307.773743   344.827392E+06       586.393982
             2063   114.946984E+06    -57.46824E+06   -57.468244E+06       815.197815   344.828768E+06       36.6554451
             2064    114.94344E+06    -57.47138E+06   -57.470372E+06       152.862411   344.828704E+06       534.375671
             2065   114.943888E+06    -57.47112E+06   -57.472368E+06      -708.979980   344.827712E+06       211.837067
             2066   114.944016E+06   -57.470396E+06   -57.470772E+06       267.200470   344.828064E+06       11.2863941
             2067   114.940424E+06   -57.473944E+06   -57.473988E+06       521.857239   344.828896E+06      -115.967545
             2068   114.941216E+06   -57.472976E+06   -57.473292E+06       16.1772423   344.828384E+06       94.7628632
             2069   114.943192E+06   -57.470904E+06   -57.471028E+06       152.744217   344.827584E+06       13.9416819
             2070   114.943152E+06   -57.469736E+06   -57.470408E+06      -497.511139   344.827072E+06      -213.751480
             2071   114.923352E+06    -57.48256E+06   -57.485696E+06  -1.43713525E+03   344.828448E+06      -766.607361
             2072   114.942544E+06   -57.471552E+06    -57.46996E+06       270.692902   344.827968E+06      -424.861755
             2073   114.941224E+06    -57.47254E+06    -57.47236E+06      -162.470383   344.827968E+06      -502.658661
             2074   114.938992E+06   -57.475448E+06    -57.47496E+06       593.380005   344.828064E+06       297.317993
             2075   114.934696E+06   -57.480068E+06    -57.48066E+06   4.04821533E+03   344.828448E+06       573.703125
             2076   114.942976E+06    -57.47126E+06   -57.471624E+06       42.0752106   344.827904E+06      -171.294159
             2077   114.948328E+06   -57.464476E+06   -57.466976E+06   2.75673364E+03   344.828832E+06   1.07817212E+03
             2078   114.942672E+06    -57.47156E+06   -57.470824E+06  -1.30252417E+03   344.829056E+06  -1.39754700E+03
             2079   114.944512E+06   -57.470288E+06   -57.469432E+06      -64.2429199   344.828224E+06      -54.4863815
             2080    114.94588E+06   -57.466888E+06   -57.467548E+06  -1.11235876E+03   344.825024E+06      -449.508331
             2081    114.99996E+06   -57.426068E+06    -57.42748E+06   3.73235718E+03   344.826496E+06       611.779602
             2082    114.88228E+06   -57.520148E+06   -57.522556E+06       555.562378   344.825504E+06   1.05209253E+03
             2083   114.950456E+06   -57.466404E+06   -57.465704E+06      -218.235275   344.826656E+06   1.69526318E+03
             2084   114.942712E+06   -57.472404E+06   -57.472076E+06       59.7257996   344.826432E+06      -609.580261
             2085   114.942672E+06   -57.471032E+06    -57.47092E+06      -82.3912277   344.827744E+06      -15.5354853
             2086   114.940984E+06     -57.4691E+06   -57.472096E+06      -404.180115   344.826816E+06      -367.161865
             2087      114.944E+06   -57.469884E+06   -57.469764E+06       20.0561352   344.827808E+06       209.655838
             2088   114.945408E+06   -57.468504E+06   -57.468816E+06       260.173035   344.827872E+06       46.0794182
             2089   114.942808E+06     -57.4719E+06   -57.472768E+06       78.1879196   344.827904E+06       605.620422
             2090   114.943064E+06   -57.470144E+06   -57.469716E+06      -934.182373   344.826464E+06       583.476440
             2091   114.944408E+06   -57.468832E+06   -57.468968E+06      -849.733154   344.825568E+06      -514.268250
             2092   114.945656E+06   -57.469528E+06   -57.469464E+06       187.219849    344.82848E+06      -23.7565899
             2093     114.9758E+06   -57.444828E+06   -57.444992E+06  -4.14716113E+03   344.826336E+06      -497.635803
             2094   114.942048E+06   -57.475896E+06   -57.475968E+06       346.269318    344.82992E+06       251.498199
             2095     114.9362E+06   -57.473192E+06   -57.474008E+06       360.690826   344.827616E+06      -277.183197
             2096    114.98336E+06   -57.442192E+06   -57.442936E+06   3.17675098E+03   344.830176E+06      -276.567657
             2097   114.946256E+06   -57.468752E+06   -57.468504E+06      -166.681732   344.827776E+06       197.566345
             2098   114.942256E+06   -57.472416E+06   -57.472356E+06      -19.2957363   344.828736E+06      -22.5139790
             2099   114.938232E+06   -57.476196E+06   -57.473944E+06   1.73845544E+03   344.828576E+06       33.2396049
             2100   114.948496E+06   -57.463584E+06   -57.463496E+06   1.15750281E+03   344.824384E+06      -13.0532389
             2101   114.889504E+06     -57.5142E+06   -57.513408E+06  -4.17431592E+03   344.831712E+06      -987.244629
             2102   114.947408E+06   -57.465224E+06   -57.465256E+06   1.58021143E+03    344.82912E+06   1.59810901E+03
             2103   114.916184E+06   -57.491016E+06   -57.491384E+06       888.483459    344.82672E+06      -80.7684174
             2104   114.943768E+06    -57.47168E+06   -57.470992E+06  -1.03656287E+03   344.828416E+06      -773.837036
             2105   114.959712E+06   -57.455884E+06    -57.45776E+06   2.29442432E+03   344.827008E+06       362.405457
             2106   114.942632E+06   -57.471368E+06   -57.471384E+06       82.2321701   344.828032E+06      -21.3066292
             2107   114.943928E+06    -57.47254E+06    -57.46852E+06  -1.89032361E+03   344.827872E+06       168.338257
             2108   114.951992E+06   -57.464992E+06    -57.46562E+06  -2.96773413E+03   344.829184E+06      -213.156525
             2109   114.942872E+06     -57.4709E+06   -57.471112E+06       83.9017258    344.82784E+06      -4.49920750
             2110   114.934296E+06   -57.474736E+06   -57.477596E+06   1.64925720E+03   344.829856E+06   1.00478424E+03
             2111   114.996552E+06    -57.42714E+06   -57.428928E+06  -5.42487207E+03    344.82384E+06       43.1822968
             2112    114.95204E+06   -57.465028E+06   -57.465764E+06   1.03387561E+03   344.827392E+06      -742.301514
             2113   114.939248E+06   -57.474524E+06   -57.474536E+06      -561.422241   344.828416E+06      -70.0715179
             2114   114.943448E+06   -57.470464E+06     -57.4707E+06       179.612167   344.828064E+06       26.3557243
             2115   114.931176E+06    -57.48092E+06   -57.480228E+06      -476.179657   344.829056E+06       228.146454
             2116   114.897984E+06   -57.509284E+06   -57.508764E+06  -1.50969995E+03   344.834112E+06       847.054321
             2117   114.941576E+06    -57.47202E+06   -57.472064E+06      -54.9221802   344.828256E+06       205.370483
             2118   114.941832E+06    -57.47142E+06   -57.470876E+06   1.16582776E+03   344.828576E+06       544.088379
             2119   114.939112E+06   -57.476032E+06   -57.473792E+06      -697.414307   344.828832E+06       182.480621
             2120   114.942424E+06   -57.471956E+06   -57.472308E+06      -24.2716408   344.828224E+06       221.385162
             2121   114.933704E+06   -57.480996E+06   -57.480408E+06  -1.22978760E+03   344.830272E+06      -239.281219
             2122    114.96536E+06    -57.45034E+06   -57.450272E+06   3.07470337E+03   344.827744E+06       745.201538
             2123   114.953448E+06    -57.45648E+06   -57.458276E+06   2.33364917E+03   344.826816E+06   1.16177063E+03
             2124   114.934944E+06    -57.47816E+06   -57.477748E+06  -2.39930981E+03   344.830208E+06      -450.274170
             2125    114.90996E+06   -57.499212E+06   -57.499888E+06   2.26803638E+03   344.828768E+06      -752.998901
             2126   114.940128E+06   -57.472516E+06   -57.472944E+06      -237.451843   344.827296E+06       35.7463493
             2127   114.929528E+06   -57.481356E+06   -57.480372E+06       706.128174   344.829792E+06       648.888794
             2128   114.944296E+06   -57.470444E+06   -57.470296E+06      -145.330353   344.827872E+06      -64.7213669
             2129   114.943296E+06   -57.470888E+06   -57.470596E+06      -65.8650360      344.828E+06      -99.9235687
             2130   114.941864E+06   -57.471832E+06   -57.471512E+06       23.7946301   344.827904E+06      -222.924652
             2131    114.94304E+06   -57.470656E+06   -57.470508E+06       3.16804481    344.82768E+06      -66.7712708
             2132   114.938792E+06   -57.474236E+06   -57.474328E+06       444.004639   344.828128E+06       87.1865845
             2133   114.933648E+06   -57.478796E+06    -57.47856E+06       15.1969509    344.82656E+06      -599.550964
             2134    114.94412E+06   -57.470428E+06   -57.469864E+06      -19.8358517   344.828096E+06      -173.691071
             2135   114.948608E+06   -57.469352E+06   -57.469392E+06   1.21394482E+03    344.82768E+06      -544.658936
             2136   114.944016E+06   -57.469936E+06   -57.469956E+06      -511.058594   344.827648E+06      -99.8093872
             2137   114.947832E+06   -57.468476E+06   -57.468856E+06       628.891418     344.8288E+06       481.577789
             2138   114.949808E+06     -57.4684E+06    -57.46832E+06   2.60544067E+03   344.828992E+06      -43.8679199
             2139   114.942376E+06   -57.473136E+06    -57.47586E+06      -483.165192   344.827328E+06       784.711975
             2140   114.937584E+06   -57.477828E+06    -57.47778E+06   1.62070068E+03   344.829792E+06       338.680664
             2141    114.93644E+06   -57.476236E+06   -57.478924E+06   2.13382568E+03   344.827904E+06       204.714462
             2142     114.9512E+06   -57.462524E+06    -57.46266E+06   1.20349353E+03   344.825216E+06       461.548096
             2143   114.962496E+06   -57.456492E+06   -57.457184E+06       16.0895100   344.827488E+06  -1.06494678E+03
             2144    114.93432E+06   -57.475656E+06   -57.476436E+06  -5.86238818E+03   344.824352E+06      -979.224304
             2145   114.941888E+06   -57.472028E+06   -57.472168E+06       125.834785   344.827712E+06      -144.372086
             2146   114.944616E+06   -57.468912E+06   -57.469012E+06      -31.8391247   344.827424E+06      -20.4201164
             2147   114.943224E+06   -57.470832E+06   -57.470692E+06      -9.09770584    344.82784E+06      -103.546204
             2148   114.917568E+06   -57.492576E+06   -57.491468E+06  -2.37830078E+03   344.831872E+06       578.444275
             2149   114.923208E+06   -57.484876E+06   -57.481404E+06   4.27248584E+03   344.829888E+06       746.989868
             2150   114.940608E+06   -57.473592E+06    -57.47338E+06      -494.886597    344.82832E+06       144.627548
             2151   114.941752E+06   -57.472236E+06   -57.472432E+06      -236.277191   344.827808E+06      -214.845795
             2152    114.94292E+06   -57.470948E+06   -57.471276E+06       37.9821968   344.827904E+06      -103.936356
             2153   114.948336E+06   -57.465944E+06   -57.465964E+06      -813.970947   344.826944E+06      -17.5847225
             2154   114.942184E+06   -57.470872E+06   -57.469932E+06      -625.514038   344.824736E+06       360.217560
             2155   114.941848E+06   -57.472912E+06   -57.474256E+06  -2.08497778E+03   344.828512E+06      -828.712402
             2156    114.96808E+06   -57.456444E+06   -57.456156E+06  -1.43233301E+03    344.82816E+06  -1.72980286E+03
             2157   114.941656E+06   -57.472228E+06   -57.472444E+06      -40.1275978   344.828032E+06       261.022278
             2158   114.938608E+06   -57.477204E+06   -57.478016E+06   9.48270215E+03   344.829952E+06      -242.668762
             2159    114.98472E+06   -57.439436E+06   -57.440836E+06      -785.427063   344.827232E+06   1.16570959E+03
             2160    115.02032E+06   -57.411628E+06   -57.408448E+06       964.560669     344.8336E+06       625.671753
             2161   114.942296E+06   -57.473132E+06     -57.4701E+06      -13.8815374   344.828416E+06      -210.820755
             2162   114.944824E+06   -57.472088E+06   -57.469596E+06      -75.1537781   344.828832E+06      -111.927719
             2163   114.939272E+06   -57.473624E+06    -57.47404E+06      -744.230957   344.827008E+06      -830.349182
             2164   114.942576E+06   -57.471544E+06   -57.471364E+06       193.713165   344.828064E+06      -31.4545612
             2165   114.940976E+06   -57.473148E+06   -57.472704E+06      -498.803009   344.828256E+06      -404.150879
             2166   114.949712E+06   -57.466724E+06   -57.463492E+06      -181.669708   344.828416E+06       261.823944
             2167    114.94236E+06   -57.471524E+06   -57.471448E+06      -63.8902855   344.828064E+06      -124.878944
             2168   114.934984E+06   -57.477996E+06   -57.478164E+06      -475.257080      344.828E+06       208.424072
             2169      114.935E+06    -57.47662E+06   -57.478548E+06       715.110474   344.827552E+06       3.13488245
             2170   114.895464E+06   -57.508668E+06   -57.507688E+06      -370.118469   344.826336E+06      -340.708954
             2171    114.94352E+06   -57.469664E+06   -57.471376E+06       807.239075   344.827168E+06      -66.9685059
             2172   114.947944E+06   -57.466252E+06   -57.466668E+06      -443.873199    344.82784E+06      -459.166565
             2173   114.943296E+06   -57.471484E+06   -57.471336E+06       191.850540   344.828256E+06       289.683044
             2174   114.942504E+06   -57.471568E+06    -57.47202E+06      -324.604156   344.827776E+06      -33.3386650
             2175   114.943096E+06   -57.471468E+06   -57.471296E+06       115.200127   344.828064E+06      -155.183014
             2176   114.942416E+06   -57.471816E+06   -57.471856E+06       63.1574860   344.828256E+06       43.0380592
             2177   114.948784E+06     -57.4633E+06   -57.464852E+06       400.887115   344.827232E+06      -68.8183975
             2178   114.943896E+06   -57.469924E+06   -57.469612E+06      -207.380783   344.827808E+06      -103.036072
             2179   114.941048E+06   -57.472128E+06   -57.472064E+06       286.043213    344.82784E+06      -348.594055
             2180   114.944416E+06   -57.469744E+06   -57.469972E+06       291.268341    344.82816E+06       499.778717
             2181    114.99828E+06   -57.421628E+06   -57.422376E+06  -2.07476587E+03   344.821344E+06   1.31359668E+03
             2182   114.942784E+06   -57.471588E+06   -57.471276E+06      -555.064026   344.827456E+06       41.1182709
             2183   114.937896E+06   -57.475048E+06   -57.475052E+06      -219.480896   344.827744E+06       213.018265
             2184   114.941664E+06   -57.471392E+06    -57.47096E+06       43.8393860   344.829184E+06   1.37951538E+03
             2185   114.939416E+06   -57.474544E+06   -57.474824E+06       949.307861   344.826944E+06   1.48737085E+03
             2186   114.940992E+06   -57.472448E+06   -57.474136E+06       98.0170441   344.827552E+06       435.253815
             2187   114.942872E+06   -57.469352E+06   -57.470528E+06      -97.3107224   344.826752E+06      -94.7558289
             2188   114.944544E+06   -57.467848E+06    -57.46772E+06   1.70722327E+03   344.825632E+06      -57.1966515
             2189   114.946712E+06   -57.469452E+06   -57.470252E+06   1.62390369E+03    344.82864E+06      -237.799789
             2190   114.970264E+06   -57.450496E+06   -57.449472E+06   2.05157349E+03   344.826656E+06       346.920166
             2191   114.949944E+06   -57.464484E+06   -57.465492E+06      -245.282745   344.827616E+06      -229.376862
             2192   114.939072E+06   -57.473852E+06   -57.475872E+06      -422.700500   344.827776E+06       465.543915
             2193   114.943768E+06   -57.469972E+06   -57.469884E+06      -72.8471146   344.827456E+06      -77.3341980
             2194   114.941592E+06   -57.472876E+06   -57.472848E+06       799.118103   344.827744E+06       669.203552
             2195   114.942128E+06   -57.470384E+06   -57.470676E+06       144.355209   344.827104E+06      -271.501007
             2196   114.945536E+06     -57.4691E+06   -57.469068E+06       832.621338   344.827904E+06       32.0319633
             2197   114.940824E+06   -57.472852E+06   -57.472992E+06       228.276886   344.828288E+06       50.7579803
             2198   114.938752E+06    -57.47516E+06   -57.476372E+06      -389.374481   344.827488E+06      -637.509705
             2199   114.921864E+06   -57.489128E+06   -57.488652E+06  -3.20409106E+03   344.830784E+06       360.222107
             2200   114.946976E+06   -57.466736E+06   -57.465592E+06      -608.114929     344.8272E+06       316.919403
             2201   114.944096E+06   -57.469904E+06    -57.46994E+06      -268.265045   344.827744E+06       19.7219181
             2202   114.945168E+06   -57.469832E+06   -57.469828E+06      -17.9656792    344.82816E+06      -176.001617
             2203   114.945896E+06   -57.468164E+06    -57.46828E+06      -470.236420   344.827264E+06      -49.0880547
             2204   114.942728E+06   -57.471164E+06   -57.471208E+06       179.252747   344.828096E+06       64.4817505
             2205    114.94324E+06    -57.47062E+06   -57.470624E+06       145.425156   344.827808E+06       43.4773026
             2206   114.947696E+06   -57.465016E+06   -57.464884E+06       783.947144   344.826272E+06       945.177795
             2207   114.967232E+06   -57.453036E+06   -57.454792E+06  -1.54611292E+03      344.828E+06       185.875687
             2208    114.93912E+06   -57.476192E+06   -57.474348E+06       669.112976   344.828128E+06       59.0087624
             2209    114.94408E+06   -57.470048E+06   -57.469424E+06       371.366394   344.827936E+06      -246.279190
             2210   114.948808E+06   -57.464216E+06   -57.466052E+06   1.46849768E+03   344.827168E+06       127.080803
             2211   114.943648E+06   -57.471072E+06   -57.469028E+06      -17.6353817   344.828448E+06  -1.02532092E+03
             2212   114.942712E+06   -57.471468E+06   -57.471852E+06       60.9145813   344.827936E+06      -179.095184
             2213   114.947696E+06   -57.465484E+06   -57.462904E+06      -446.105804   344.828416E+06       184.765442
             2214   114.918632E+06   -57.489192E+06    -57.49108E+06  -2.82377271E+03    344.82576E+06      -99.8684311
             2215   114.943768E+06    -57.46964E+06    -57.47002E+06       279.092133   344.827744E+06       125.203049
             2216     114.9438E+06   -57.472392E+06   -57.472812E+06  -1.43740356E+03    344.82816E+06       134.834274
             2217   114.940536E+06   -57.472772E+06   -57.472888E+06       102.134232   344.827968E+06      -14.6179457
             2218   114.944096E+06    -57.46966E+06    -57.46924E+06       32.0256577    344.82752E+06      -253.079697
             2219   114.938184E+06   -57.475648E+06   -57.476024E+06      -674.015686   344.829664E+06      -110.562515
             2220   114.944936E+06   -57.471856E+06    -57.47202E+06  -1.39630566E+03   344.830336E+06       61.8692360
             2221    114.94052E+06   -57.474096E+06    -57.47402E+06      -287.595001   344.829184E+06   2.14426025E+03
             2222   114.937328E+06     -57.4726E+06   -57.473852E+06  -3.47997607E+03   344.824384E+06       371.903595
             2223    114.95116E+06   -57.466284E+06    -57.46626E+06  -1.30055212E+03   344.829632E+06       75.7535934
             2224   114.943648E+06   -57.470404E+06   -57.470412E+06       352.351746   344.827744E+06       27.5612965
             2225   114.950728E+06   -57.466548E+06   -57.466652E+06  -1.38909094E+03   344.829504E+06       61.2740364
             2226   114.950328E+06    -57.46854E+06    -57.46682E+06   1.87646631E+03   344.830176E+06       622.662903
             2227   114.942032E+06    -57.47156E+06    -57.47144E+06      -3.34547162    344.82784E+06      -78.8157959
             2228   114.943648E+06   -57.470288E+06   -57.470336E+06       41.0161362    344.82768E+06       245.254166
             2229    114.93964E+06   -57.473732E+06     -57.4738E+06       299.312408   344.828096E+06       14.3502579
             2230    114.94924E+06   -57.462592E+06     -57.4637E+06      -957.358154   344.828576E+06       936.558411
             2231    114.92528E+06   -57.492336E+06   -57.490364E+06   1.77018945E+03   344.830976E+06      -105.496826
             2232   114.937104E+06   -57.476056E+06   -57.476404E+06       427.250519   344.827168E+06       98.9095612
             2233   114.930712E+06   -57.479024E+06   -57.482268E+06      -641.428101   344.825952E+06      -721.912720
             2234   114.941256E+06    -57.47176E+06   -57.472096E+06      -168.982651   344.828064E+06      -137.947189
             2235   114.942648E+06   -57.471548E+06   -57.471836E+06       254.193192   344.827968E+06       114.370575
             2236    114.93708E+06   -57.475788E+06   -57.475944E+06       232.315750    344.82768E+06       92.1435623
             2237   114.916944E+06    -57.49344E+06   -57.493548E+06  -1.79020300E+03   344.830048E+06      -481.613251
             2238   114.947464E+06   -57.467232E+06   -57.467436E+06       106.879044   344.827168E+06       58.8841324
             2239   114.945896E+06   -57.468244E+06   -57.468292E+06       5.35434675   344.827296E+06      -3.06900644
             2240   114.942424E+06    -57.47092E+06   -57.470896E+06       126.955788   344.827104E+06       17.0394459
             2241   114.942856E+06   -57.470964E+06   -57.470784E+06      -256.498535   344.827808E+06      -29.9723759
             2242   114.942368E+06   -57.471532E+06   -57.471512E+06       28.4045544   344.827968E+06      -6.89724445
             2243   114.940968E+06   -57.472592E+06   -57.472392E+06       303.117432   344.827968E+06      -237.516312
             2244   114.943744E+06   -57.471532E+06   -57.470588E+06  -1.14057153E+03   344.827104E+06      -230.070999
             2245    114.94464E+06    -57.46666E+06   -57.468652E+06  -1.15000146E+03   344.827552E+06      -804.742432
             2246     114.9434E+06   -57.470192E+06   -57.469852E+06       214.504379   344.827904E+06      -304.724548
             2247    114.94224E+06    -57.47182E+06   -57.471572E+06       12.4829760   344.828192E+06      -8.40321636
             2248   114.941592E+06   -57.472696E+06   -57.472544E+06      -395.009857   344.828352E+06      -35.5159149
             2249   114.943296E+06   -57.470756E+06   -57.470548E+06      -18.0388660      344.828E+06      -211.433792
             2250   114.974968E+06   -57.442104E+06   -57.443244E+06   1.97973108E+03   344.822464E+06      -419.069611
             2251   114.942064E+06   -57.472156E+06   -57.472196E+06       150.764069   344.827936E+06       29.5345612
             2252   114.941848E+06   -57.472304E+06   -57.472256E+06      -26.7292862   344.828256E+06       36.3461151
             2253   114.942816E+06    -57.47134E+06    -57.47136E+06      -134.222610   344.827872E+06      -222.991196
             2254    114.94276E+06   -57.471212E+06   -57.471024E+06      -53.0504570   344.828096E+06       69.7586670
             2255    114.93764E+06   -57.476752E+06   -57.476884E+06       929.825562   344.827104E+06   1.27954541E+03
             2256   114.943432E+06   -57.470484E+06   -57.470772E+06      -574.105652   344.827296E+06      -560.551636
             2257    114.94392E+06     -57.4707E+06   -57.471024E+06       58.1577530   344.827616E+06      -3.98744726
             2258   114.946136E+06   -57.468576E+06   -57.468928E+06      -728.417969   344.827296E+06      -108.968849
             2259   114.944168E+06   -57.469028E+06   -57.468244E+06      -58.3277702   344.827232E+06       24.6940613
             2260   114.946048E+06   -57.467776E+06   -57.467692E+06       251.635651   344.827168E+06       425.193970
             2261   114.942432E+06   -57.471328E+06   -57.470736E+06      -209.582245   344.827872E+06       32.6080170
             2262   114.950032E+06    -57.46552E+06   -57.466392E+06  -1.06747156E+03   344.828832E+06  -1.02631299E+03
             2263   114.933216E+06   -57.479728E+06   -57.480796E+06  -1.47498730E+03   344.827168E+06       645.007141
             2264   114.943304E+06   -57.470444E+06   -57.470472E+06      -49.4729958   344.827584E+06       5.81502485
             2265   114.942808E+06   -57.470904E+06   -57.470692E+06      -7.36264896   344.827904E+06      -29.9036636
             2266   114.946656E+06   -57.467588E+06    -57.46782E+06      -131.753586   344.826784E+06      -81.8789215
             2267    114.93408E+06    -57.48514E+06   -57.481364E+06  -2.62605786E+03   344.830816E+06       30.9884815
             2268   114.942496E+06   -57.471756E+06     -57.4719E+06       223.416840    344.82816E+06       166.747116
             2269   114.942488E+06    -57.47152E+06   -57.471488E+06      -32.3376122   344.827776E+06      -46.0859642
             2270   114.944128E+06   -57.470144E+06   -57.469604E+06       366.571625   344.827648E+06      -247.117538
             2271   114.945016E+06   -57.468448E+06   -57.467844E+06       86.3087158   344.827744E+06       71.3896332
             2272   114.942184E+06   -57.471416E+06   -57.471412E+06      -74.6830139    344.82784E+06       50.6850166
             2273   114.942904E+06   -57.470732E+06   -57.470456E+06      -67.6237564   344.827392E+06       52.2516594
             2274   114.964264E+06   -57.454444E+06   -57.455176E+06       510.021667   344.826784E+06      -435.920593
             2275   114.944504E+06     -57.4696E+06    -57.46896E+06      -102.654686   344.828192E+06       57.0122414
             2276    114.94048E+06   -57.472052E+06   -57.472588E+06      -176.606140    344.82784E+06      -99.4846802
             2277   114.950376E+06   -57.463952E+06   -57.463712E+06      -319.939911   344.826912E+06       390.999176
             2278    114.94296E+06    -57.47128E+06   -57.470984E+06      -44.6896515   344.828096E+06       46.2493210
             2279   114.941496E+06   -57.472236E+06   -57.472516E+06      -202.955399   344.828064E+06       18.0370998
             2280   114.980688E+06   -57.440312E+06   -57.440596E+06  -4.30945996E+03    344.82688E+06      -401.655548
             2281   114.947552E+06    -57.46814E+06   -57.467652E+06       106.145882    344.82784E+06      -34.7570724
             2282   114.943016E+06   -57.470712E+06     -57.4707E+06      -65.8728333   344.828128E+06      -59.6967278
             2283   114.943288E+06   -57.470816E+06    -57.47066E+06      -129.211639   344.827936E+06      -103.014061
             2284   114.943672E+06   -57.470488E+06   -57.470248E+06      -126.389511   344.827936E+06      -250.069901
             2285   114.954384E+06   -57.463196E+06   -57.465384E+06  -1.08978577E+03    344.82752E+06   1.32552429E+03
             2286    114.95076E+06   -57.464912E+06   -57.465876E+06       451.414856   344.829344E+06       12.8402023
             2287   114.941456E+06   -57.472716E+06   -57.472912E+06      -41.3362312   344.828032E+06       138.915848
             2288    114.93932E+06   -57.473468E+06    -57.47276E+06       59.3225060   344.828224E+06       279.746918
             2289    114.94352E+06   -57.470436E+06   -57.470128E+06      -51.1529846   344.827616E+06      -200.614624
             2290   114.942504E+06   -57.471452E+06    -57.47158E+06      -13.6368151   344.827776E+06      -203.254868
             2291   114.941472E+06   -57.472824E+06   -57.472236E+06      -189.641861   344.828128E+06      -195.955048
             2292    114.92544E+06   -57.487248E+06   -57.488188E+06      -678.153809   344.832096E+06       33.2482224
             2293   114.998744E+06   -57.428092E+06   -57.428664E+06   1.16834131E+03   344.821888E+06   2.24134058E+03
             2294    114.91904E+06   -57.489132E+06    -57.48924E+06   2.69850366E+03   344.827104E+06       210.170197
             2295   114.943848E+06   -57.470144E+06   -57.469844E+06      -231.353073   344.827872E+06      -99.7400665
             2296    114.96628E+06   -57.453848E+06    -57.45502E+06   3.04754614E+03   344.828224E+06      -229.961548
             2297   114.936608E+06   -57.479504E+06   -57.480676E+06      -716.984619    344.83104E+06      -327.350983
             2298   114.945312E+06    -57.46828E+06   -57.467284E+06      -879.775879    344.82784E+06  -1.06061694E+03
             2299   114.943352E+06   -57.469508E+06   -57.468836E+06   5.08680908E+03    344.82656E+06       606.533997
             2300   114.923144E+06   -57.483692E+06   -57.484988E+06      -342.279907   344.829792E+06       56.0766754
             2301   114.927088E+06   -57.492136E+06    -57.49118E+06  -1.10087085E+03   344.834144E+06       392.182800
             2302   114.911936E+06   -57.495904E+06   -57.496476E+06  -3.60491211E+03     344.8272E+06      -194.845139
             2303   114.940216E+06    -57.46928E+06   -57.469964E+06       497.246429   344.825216E+06       285.669189
             2304   114.942048E+06   -57.471724E+06   -57.471636E+06      -12.6319895   344.827712E+06       1.73099399
             2305   114.938296E+06     -57.4748E+06   -57.475156E+06      -365.456543   344.827104E+06      -790.666626
             2306   114.942104E+06   -57.471476E+06   -57.471252E+06      -84.5937958    344.82752E+06       114.906319
             2307   114.939008E+06   -57.475464E+06   -57.476328E+06  -1.04211682E+03   344.828576E+06      -680.669373
             2308   114.941136E+06   -57.475852E+06   -57.475884E+06  -4.13809912E+03   344.831168E+06      -242.984100
             2309   114.946216E+06    -57.46878E+06   -57.468468E+06       60.5761757   344.828352E+06      -147.847702
             2310   114.940704E+06   -57.472888E+06   -57.472756E+06      -308.926727   344.827616E+06       105.768097
             2311   114.938288E+06   -57.473468E+06   -57.473972E+06   1.28314978E+03     344.8264E+06      -97.3248367
             2312   114.941352E+06   -57.471908E+06   -57.472284E+06       174.177048    344.82816E+06       122.485573
             2313   114.947784E+06   -57.467444E+06   -57.466356E+06      -951.165161   344.828832E+06      -784.500610
             2314   114.949768E+06   -57.465852E+06   -57.466148E+06      -850.136475   344.827488E+06      -485.329315
             2315   114.943872E+06    -57.47006E+06   -57.470144E+06       19.4524651   344.827776E+06       7.27146626
             2316   114.950704E+06   -57.469752E+06    -57.46744E+06      -598.490112   344.828864E+06       373.374634
             2317   114.938256E+06    -57.47494E+06   -57.475136E+06      -333.481995     344.8272E+06      -823.596130
             2318    114.94588E+06   -57.468712E+06     -57.4691E+06      -182.000778   344.828032E+06      -248.637466
             2319    114.95356E+06   -57.469112E+06   -57.469288E+06   3.29593188E+03    344.83264E+06   1.08315027E+03
             2320   114.977184E+06   -57.443512E+06   -57.445492E+06   3.88460376E+03   344.825504E+06       872.228516
             2321    114.93528E+06   -57.477536E+06     -57.4773E+06      -943.756531   344.828928E+06       407.336395
             2322   114.942784E+06   -57.471384E+06   -57.471804E+06       333.136414   344.827584E+06       449.153015
             2323   114.956168E+06   -57.458548E+06   -57.458256E+06  -2.35897266E+03     344.8256E+06       140.588791
             2324   114.948096E+06   -57.467048E+06   -57.468136E+06       194.175812    344.82864E+06       99.1948700
             2325   114.942624E+06   -57.471304E+06   -57.470852E+06      -78.8128052   344.828192E+06      -120.164177
             2326    114.92532E+06   -57.481088E+06    -57.48112E+06  -1.73637830E+03   344.827488E+06       524.557312
             2327   114.943744E+06   -57.470076E+06   -57.470176E+06       79.3729782    344.82784E+06       84.1891327
             2328   114.942944E+06   -57.470972E+06   -57.470948E+06       157.579224    344.82784E+06      -9.66700649
             2329   114.943304E+06   -57.470756E+06   -57.471256E+06       9.43696976   344.827904E+06       5.53216362
             2330   114.943712E+06    -57.47014E+06   -57.470632E+06   279.926926E-03    344.82784E+06       208.011993
             2331   114.947632E+06   -57.467336E+06   -57.467336E+06       640.401794   344.827872E+06  -298.572361E-03
             2332   114.929568E+06    -57.47954E+06   -57.477508E+06       23.8868885    344.82944E+06  -1.07154163E+03
             2333    114.94656E+06   -57.465448E+06   -57.465732E+06       8.69875050    344.82416E+06      -280.737671
             2334    114.94344E+06   -57.470148E+06     -57.4702E+06       229.178070   344.827264E+06      -18.9428902
             2335   114.939328E+06   -57.474132E+06    -57.47438E+06       341.918976   344.828384E+06       308.759735
             2336   114.943936E+06   -57.470424E+06   -57.470532E+06       149.253876   344.827936E+06       103.464851
             2337   114.906288E+06   -57.500052E+06   -57.501576E+06      -443.204681    344.82896E+06      -345.748474
             2338   114.936816E+06   -57.476392E+06   -57.476664E+06      -404.783905   344.827936E+06      -494.037170
             2339   114.943024E+06   -57.470776E+06     -57.4713E+06       305.015289   344.827712E+06      -50.2742081
             2340     114.9786E+06   -57.442896E+06   -57.443536E+06   6.70672705E+03   344.826112E+06      -691.074158
             2341   114.943384E+06   -57.470792E+06   -57.471028E+06       315.559143   344.827712E+06       12.5089712
             2342   115.003496E+06     -57.4261E+06   -57.425992E+06   2.82326440E+03   344.826432E+06  -1.52543848E+03
             2343   114.916816E+06   -57.491092E+06   -57.492456E+06  -2.93588867E+03   344.827744E+06      -415.463501
             2344   114.991408E+06   -57.432744E+06   -57.433112E+06  -1.88804932E+03   344.825248E+06      -774.861694
             2345    114.94296E+06   -57.471024E+06   -57.471636E+06       109.298119   344.827872E+06      -12.5832348
             2346    114.94692E+06   -57.467148E+06   -57.466784E+06  -4.41694531E+03   344.828448E+06   1.01569995E+03
             2347   114.962072E+06   -57.459952E+06   -57.459988E+06       762.628113   344.827968E+06       873.749634
             2348    114.97856E+06   -57.434912E+06   -57.431756E+06  -1.32962012E+03   344.822176E+06       311.792847
             2349     114.9498E+06    -57.46962E+06   -57.472244E+06   4.56012598E+03   344.829536E+06       604.314453
             2350   114.942576E+06   -57.473624E+06   -57.474456E+06       442.141357    344.82864E+06       851.392456
             2351   114.948976E+06   -57.466124E+06   -57.466136E+06       376.950043   344.828192E+06      -15.9412832
             2352   114.942936E+06   -57.471548E+06   -57.470888E+06      -117.035416   344.828096E+06      -101.115791
             2353   114.937944E+06   -57.475808E+06   -57.475788E+06      -473.578918   344.827392E+06   1.98868311E+03
             2354   114.943872E+06    -57.47282E+06   -57.473828E+06  -1.30088391E+03    344.82816E+06      -877.862732
             2355   114.932656E+06   -57.480384E+06   -57.485564E+06      -844.723022   344.830304E+06       574.267090
             2356    114.94476E+06   -57.466968E+06   -57.469968E+06   2.48991504E+03     344.8256E+06       332.511078
             2357   114.930584E+06     -57.4807E+06   -57.482816E+06      -686.270752   344.826496E+06       462.157135
             2358   114.941008E+06   -57.472836E+06   -57.472836E+06       553.090149   344.828672E+06      -111.341850
             2359   114.877888E+06   -57.519996E+06   -57.516528E+06  -4.06385864E+03   344.831232E+06      -407.067322
             2360   114.942224E+06   -57.471472E+06   -57.471544E+06      -108.576065   344.828096E+06       126.869118
             2361   114.942248E+06   -57.471472E+06   -57.471728E+06      -73.2622604   344.827904E+06       160.224670
             2362   114.942984E+06   -57.470816E+06   -57.470092E+06      -133.922043   344.828128E+06       88.3223343
             2363    114.94288E+06    -57.47084E+06    -57.47102E+06       2.33135629   344.827776E+06      -23.3551483
             2364   114.942424E+06    -57.47112E+06   -57.471176E+06       19.8115177    344.82784E+06       19.3132706
             2365   114.944392E+06    -57.46966E+06   -57.469884E+06       199.281708   344.827168E+06       109.478714
             2366   114.943112E+06   -57.470968E+06   -57.470552E+06      -82.3080215    344.82816E+06      -165.111343
             2367   114.943248E+06   -57.470212E+06   -57.470268E+06      -5.24409246   344.827872E+06       29.9227066
             2368   114.940416E+06   -57.477232E+06   -57.475536E+06       947.048096   344.828736E+06  -1.30908313E+03
             2369   114.922568E+06   -57.488812E+06   -57.489832E+06  -1.49805505E+03   344.826944E+06  -1.01822174E+03
             2370    114.94296E+06    -57.47076E+06   -57.470832E+06       28.2009659   344.827904E+06       88.5194550
             2371   114.947224E+06   -57.467916E+06   -57.466808E+06      -269.074249   344.828896E+06   463.161081E-03
             2372   114.942192E+06   -57.471196E+06   -57.471872E+06       455.560455   344.827712E+06       181.132523
             2373   114.943864E+06   -57.468208E+06   -57.468292E+06      -911.510376   344.826752E+06       509.419281
             2374   114.935768E+06    -57.47678E+06   -57.476436E+06      -276.954742   344.828608E+06      -660.267700
             2375    114.95464E+06   -57.462488E+06   -57.462032E+06   2.37178735E+03   344.828288E+06       193.956009
             2376   114.950128E+06    -57.46184E+06   -57.462228E+06       928.433594   344.822144E+06       654.720093
             2377   114.943792E+06   -57.470228E+06   -57.470508E+06       684.906128   344.827488E+06       150.880051
             2378   114.935264E+06   -57.474032E+06   -57.476084E+06      -54.3263626   344.827104E+06       476.634003
             2379   114.945856E+06   -57.468852E+06   -57.468776E+06      -362.637299   344.828192E+06       120.840149
             2380   114.951376E+06   -57.464092E+06    -57.46532E+06   1.69340161E+03   344.826592E+06       85.6317062
             2381   114.947648E+06   -57.467108E+06   -57.467308E+06      -717.170898   344.826464E+06       558.513306
             2382   114.948768E+06    -57.46766E+06   -57.468564E+06  -1.55259583E+03    344.82832E+06      -76.9812012
             2383   114.974576E+06   -57.443692E+06     -57.4425E+06  -4.34372754E+03   344.827008E+06      -218.286835
             2384   114.944208E+06   -57.470048E+06    -57.47004E+06      -83.6682739   344.828096E+06      -88.0248184
             2385   114.945136E+06   -57.469372E+06   -57.469108E+06      -318.270172   344.828736E+06      -332.418854
             2386     114.9384E+06    -57.47592E+06   -57.474748E+06   1.76372119E+03   344.829888E+06      -679.990784
             2387   114.942816E+06   -57.471136E+06   -57.471248E+06       112.694313   344.828128E+06      -140.757935
             2388    114.94664E+06   -57.469144E+06   -57.468796E+06   3.09270459E+03   344.828192E+06       388.912262
             2389   114.936776E+06    -57.47824E+06   -57.477332E+06  -9.88898926E+03   344.830912E+06       83.4847946
             2390   114.943608E+06   -57.470072E+06   -57.469856E+06       93.5666504    344.82768E+06       9.51838303
             2391    114.94004E+06   -57.471696E+06   -57.472716E+06  -1.78416919E+03   344.826496E+06      -999.862183
             2392   114.941824E+06   -57.472116E+06   -57.471948E+06       26.2685566   344.828448E+06      -164.445084
             2393   114.915264E+06     -57.4889E+06   -57.488124E+06       501.950287    344.82992E+06   1.21710474E+03
             2394   114.952208E+06   -57.464808E+06   -57.465968E+06       593.302795   344.827904E+06       16.2439651
             2395   114.955336E+06   -57.459276E+06   -57.462816E+06       866.625061   344.827936E+06      -349.897095
             2396   114.945944E+06   -57.468016E+06    -57.46836E+06       519.001404   344.827776E+06      -632.505249
             2397   114.940104E+06   -57.475756E+06   -57.478096E+06       861.352905   344.828192E+06       962.980164
             2398   114.939816E+06   -57.473644E+06    -57.47364E+06   1.30382056E+03   344.828096E+06      -387.004242
             2399   114.943448E+06   -57.470604E+06   -57.470484E+06      -280.047943   344.827936E+06      -45.7440872
             2400   114.948904E+06   -57.463112E+06   -57.464028E+06   1.05367871E+03   344.824192E+06       424.220062
             2401   114.942536E+06     -57.4723E+06    -57.47212E+06      -556.991150   344.827936E+06      -166.326538
             2402   114.963504E+06   -57.451996E+06   -57.455964E+06   1.55841321E+03   344.829216E+06   2.18523389E+03
             2403   114.942376E+06   -57.471672E+06   -57.471636E+06       257.281830   344.828032E+06       32.2357597
             2404   114.943624E+06    -57.47026E+06   -57.470236E+06       79.2129364   344.827552E+06      -12.9236965
             2405   114.946328E+06   -57.470712E+06    -57.46726E+06      -355.961365   344.828768E+06       646.741394
             2406   114.943392E+06   -57.475472E+06   -57.471828E+06   3.24171460E+03   344.827744E+06  -1.22115515E+03
             2407   114.941624E+06   -57.473008E+06   -57.473092E+06       125.268768   344.828544E+06      -103.522919
             2408   114.946424E+06   -57.467132E+06   -57.463812E+06   1.51558716E+03   344.826368E+06       637.477966
             2409    114.93584E+06   -57.479324E+06     -57.4809E+06   2.40164844E+03   344.826976E+06      -885.767456
             2410   114.943344E+06   -57.474088E+06   -57.471936E+06       178.020493   344.828736E+06      -715.162476
             2411   114.939136E+06   -57.474408E+06     -57.4746E+06       252.406677   344.828096E+06       955.991699
             2412   114.934224E+06    -57.47438E+06   -57.472656E+06   1.57058264E+03   344.828416E+06   1.81571765E+03
             2413    114.94188E+06   -57.471792E+06   -57.471884E+06       4.89593124   344.827808E+06      -146.599442
             2414   114.945624E+06   -57.469384E+06   -57.468212E+06      -597.221558   344.827968E+06      -166.724167
             2415   114.945896E+06    -57.46836E+06     -57.4698E+06  -1.75739417E+03   344.828032E+06       187.183258
             2416    114.94456E+06   -57.469788E+06   -57.469184E+06       549.334961   344.827968E+06       103.209885
             2417   114.938408E+06   -57.474876E+06   -57.476776E+06      -101.910156   344.828992E+06  -1.09146765E+03
             2418   114.973848E+06   -57.444684E+06   -57.444772E+06  -2.73206738E+03   344.823296E+06       109.816833
             2419   114.968456E+06   -57.452836E+06   -57.452032E+06   1.26011731E+03   344.830432E+06       12.9537086
             2420   114.945008E+06   -57.467628E+06    -57.46816E+06   2.92197559E+03   344.825184E+06      -65.6405182
             2421   114.933112E+06   -57.484344E+06   -57.482612E+06       1.09711587   344.829024E+06  -1.04992444E+03
             2422    114.94836E+06   -57.465752E+06   -57.463968E+06      -439.300201   344.826496E+06      -7.42946100
             2423   114.944744E+06   -57.467992E+06   -57.468732E+06      -333.426849     344.8272E+06      -37.3820114
             2424   114.942408E+06   -57.469408E+06   -57.471608E+06  -2.41727612E+03   344.824224E+06      -680.399048
             2425   114.945488E+06   -57.468624E+06   -57.468308E+06       92.6248932   344.827872E+06      -220.007950
             2426   114.942384E+06   -57.471476E+06    -57.47132E+06       130.777359   344.827648E+06       28.0981045
             2427   114.942928E+06   -57.470696E+06   -57.470792E+06      -127.477257   344.827712E+06       61.8773003
             2428   114.904944E+06   -57.505516E+06   -57.506572E+06   6.19089014E+03   344.833952E+06      -417.465759
             2429   114.943344E+06   -57.470808E+06   -57.471356E+06       205.607727   344.828384E+06       454.849426
             2430    114.96384E+06     -57.4503E+06   -57.450676E+06      -954.530212   344.824256E+06      -406.923340
             2431   114.945216E+06   -57.469044E+06   -57.468672E+06       163.050705   344.827776E+06      -6.21188211
             2432    114.93636E+06    -57.47414E+06   -57.477584E+06      -378.215302   344.828416E+06       236.341156
             2433    114.93372E+06   -57.477676E+06   -57.478428E+06  -2.78642847E+03   344.828864E+06   1.94553516E+03
             2434    114.94404E+06   -57.469156E+06   -57.468884E+06      -693.832825   344.827264E+06      -685.540833
             2435   114.942944E+06   -57.470864E+06   -57.470384E+06      -118.036972   344.828128E+06      -275.440155
             2436   114.943344E+06    -57.47044E+06    -57.47042E+06       114.290718   344.827552E+06       3.36439538
             2437   114.947056E+06    -57.46812E+06   -57.466788E+06       597.162903   344.828736E+06       68.9236221
             2438   114.938352E+06   -57.475684E+06   -57.475924E+06      -479.112732    344.82832E+06   1.54530518E+03
             2439   114.944672E+06   -57.473116E+06   -57.475452E+06      -977.039124    344.82976E+06       690.906738
             2440   114.939528E+06   -57.477624E+06   -57.476464E+06       90.3590088   344.828736E+06       164.703934
             2441   114.948096E+06    -57.46948E+06   -57.469704E+06       619.538452   344.829696E+06       186.203186
             2442    114.94224E+06   -57.471532E+06   -57.471492E+06       70.8723984   344.827744E+06       11.3296146
             2443   114.955112E+06   -57.456504E+06   -57.456504E+06  -4.28558887E+03   344.824928E+06       316.797150
             2444   114.942696E+06   -57.471536E+06   -57.471512E+06       38.3703461   344.828256E+06       42.4206924
             2445   114.938984E+06   -57.475852E+06   -57.473216E+06   1.77009875E+03   344.830528E+06       108.303810
             2446   114.952224E+06   -57.461116E+06   -57.460436E+06   2.02866589E+03   344.829376E+06      -43.5350990
             2447   114.942408E+06   -57.472464E+06   -57.471884E+06       389.223114    344.82832E+06       926.627563
             2448   114.947672E+06   -57.467092E+06   -57.466932E+06       227.264404   344.827264E+06       74.3064728
             2449   114.911848E+06   -57.497424E+06   -57.495652E+06  -6.00909180E+03   344.830976E+06       549.338684
             2450   114.943568E+06   -57.470288E+06    -57.46886E+06      -219.557968   344.828608E+06      -436.593201
             2451    114.94552E+06   -57.470148E+06    -57.47094E+06       456.514954   344.827584E+06      -588.783508
             2452   114.943432E+06    -57.47076E+06   -57.470888E+06       65.8294373    344.82848E+06       113.044800
             2453   114.940744E+06   -57.473668E+06   -57.474272E+06      -340.151855   344.828512E+06      -491.404846
             2454    114.94236E+06   -57.471312E+06   -57.470064E+06       237.380600   344.828192E+06      -248.976532
             2455   114.946048E+06    -57.47038E+06   -57.471456E+06      -291.106812   344.828064E+06      -413.675476
             2456   114.945104E+06   -57.470612E+06    -57.47016E+06      -747.065796   344.828576E+06      -50.4366302
             2457   114.944152E+06   -57.471304E+06   -57.471128E+06       202.239548   344.827264E+06       420.436737
             2458   114.944504E+06   -57.470336E+06    -57.46866E+06       247.239334   344.828736E+06      -93.5101471
             2459   114.941752E+06   -57.471836E+06    -57.47162E+06       238.989700   344.827936E+06      -322.101776
             2460   114.940904E+06   -57.473104E+06    -57.47302E+06       132.789536    344.82816E+06      -120.782585
             2461   114.930928E+06     -57.4848E+06   -57.482656E+06       665.170349   344.830464E+06  -1.00158716E+03
             2462   114.951896E+06    -57.46478E+06   -57.465736E+06  -1.04556824E+03   344.828224E+06      -908.708679
             2463   114.949848E+06    -57.46684E+06   -57.466984E+06       270.754639   344.831488E+06       23.2819786
             2464   114.944992E+06   -57.468968E+06    -57.46888E+06      -505.438568   344.827392E+06       79.6550903
             2465   114.942288E+06   -57.471592E+06   -57.471424E+06       133.665924    344.82768E+06       37.9896088
             2466   114.958256E+06   -57.460384E+06   -57.459336E+06  -4.54298096E+03   344.830176E+06       200.121399
             2467   114.936712E+06   -57.481376E+06   -57.481772E+06       919.186035   344.831648E+06      -394.860321
             2468   114.943384E+06   -57.472456E+06   -57.474276E+06   1.21265332E+03    344.82832E+06      -569.286804
             2469    114.96912E+06   -57.451316E+06      -57.452E+06       749.190369   344.825952E+06      -406.957733
             2470   114.942632E+06   -57.471208E+06    -57.47134E+06       54.2911568   344.827872E+06      -73.8933640
             2471   114.942728E+06   -57.471424E+06   -57.471904E+06      -370.591736   344.828032E+06       191.815933
             2472    114.94364E+06     -57.4705E+06    -57.47052E+06      -41.8708420   344.827872E+06      -239.332016
             2473    114.94312E+06   -57.471692E+06   -57.470408E+06  -3.22945825E+03   344.830624E+06       420.428131
             2474   114.941192E+06   -57.471772E+06   -57.471784E+06       146.974136   344.828416E+06       86.7562790
             2475   114.944984E+06    -57.47114E+06   -57.471984E+06  -2.06171216E+03   344.825472E+06  -1.14821924E+03
             2476   114.933528E+06   -57.478472E+06   -57.482544E+06       557.258972   344.828608E+06       562.191956
             2477   114.941328E+06   -57.472592E+06   -57.472528E+06      -647.891541   344.828416E+06       108.711014
             2478   114.941752E+06   -57.472412E+06   -57.472196E+06       24.4972878   344.827968E+06      -24.2656574
             2479    114.94248E+06   -57.471132E+06   -57.471016E+06       755.909607   344.827392E+06      -165.264435
             2480   114.919272E+06   -57.492532E+06   -57.491788E+06  -4.22404688E+03   344.832448E+06       830.539124
             2481   114.940824E+06   -57.472892E+06   -57.472992E+06      -271.570343   344.827904E+06      -23.7673569
             2482   114.942488E+06   -57.471184E+06   -57.471452E+06      -164.600250   344.825824E+06       254.991791
             2483     114.9396E+06   -57.474632E+06   -57.474608E+06      -31.9064159   344.828288E+06      -511.548157
             2484   114.950712E+06   -57.470524E+06   -57.467824E+06   1.46670142E+03   344.831744E+06      -28.5355148
             2485   114.943352E+06   -57.470852E+06     -57.4708E+06      -177.392792   344.827712E+06      -195.047775
             2486   114.944608E+06   -57.463456E+06   -57.462956E+06       468.568726   344.821824E+06       631.162048
             2487   114.943208E+06   -57.470732E+06   -57.470756E+06      -38.9087181   344.828096E+06      -61.4861870
             2488   114.938712E+06   -57.479924E+06   -57.478884E+06   3.04981030E+03   344.829984E+06  -1.34277295E+03
             2489   114.942616E+06   -57.471192E+06     -57.4712E+06       193.557495   344.827872E+06       28.0736713
             2490   114.942176E+06   -57.471576E+06   -57.471504E+06       70.0634918   344.828032E+06       22.0058537
             2491   114.943888E+06   -57.469896E+06   -57.469852E+06       410.692871   344.827584E+06       251.219681
             2492   114.944352E+06    -57.46978E+06   -57.469492E+06       133.514084    344.82784E+06      -176.173752
             2493   114.943512E+06   -57.470616E+06   -57.470844E+06      -51.3555107   344.828064E+06       42.6723328
             2494   114.942456E+06   -57.470688E+06   -57.471032E+06      -217.428604   344.827936E+06      -136.786438
             2495   114.939664E+06    -57.47712E+06   -57.476144E+06       960.736572   344.827648E+06  -1.11099951E+03
             2496   114.942648E+06   -57.471208E+06   -57.471904E+06       41.5644875   344.828256E+06      -51.3750267
             2497    114.94236E+06   -57.471448E+06   -57.470648E+06       38.6942024   344.828416E+06       477.214478
             2498   114.944048E+06   -57.470068E+06   -57.470248E+06       127.481224    344.82784E+06       500.796356
             2499     114.9442E+06   -57.470512E+06    -57.46968E+06       40.5770836   344.828704E+06      -221.960892
             2500   114.942288E+06    -57.47158E+06   -57.471836E+06      -29.7664928   344.827936E+06       243.026138
             2501    114.94228E+06   -57.472248E+06   -57.472732E+06       441.291351   344.828576E+06       790.525208
             2502   114.940192E+06   -57.475672E+06   -57.476232E+06       310.685974   344.830816E+06      -158.509399
             2503    114.94296E+06   -57.467896E+06   -57.471264E+06   1.22607129E+03   344.828928E+06       434.953918
             2504   114.942056E+06   -57.472196E+06   -57.472296E+06      -9.57445908   344.828192E+06      -194.227814
             2505   114.943872E+06    -57.46936E+06   -57.469708E+06       583.058350   344.826752E+06       286.218048
             2506   114.945584E+06   -57.468512E+06   -57.468616E+06       154.428787   344.827712E+06       88.4441528
             2507    114.94264E+06   -57.470992E+06   -57.470424E+06       145.882874   344.828256E+06       464.118195
             2508     114.9712E+06   -57.441416E+06   -57.442568E+06  -3.20071826E+03   344.822464E+06       219.454773
             2509   114.942744E+06   -57.470844E+06   -57.471504E+06       366.896729   344.827392E+06       515.655823
             2510   114.965816E+06   -57.450188E+06   -57.448444E+06  -2.92527588E+03   344.825184E+06       620.721191
             2511   114.942856E+06   -57.470892E+06   -57.470756E+06       79.8367538   344.827904E+06      -23.8757858
             2512    114.94372E+06   -57.470032E+06   -57.470044E+06      -22.3708305   344.827904E+06       365.251953
             2513    115.00456E+06   -57.422312E+06    -57.42196E+06   2.95930005E+03   344.822976E+06  -1.40759387E+03
             2514   114.934864E+06    -57.47736E+06    -57.47642E+06       345.712372   344.827104E+06   1.08842883E+03
             2515   114.901656E+06   -57.503164E+06   -57.500124E+06   2.98063965E+03    344.83248E+06       413.629211
             2516   114.939704E+06   -57.474028E+06   -57.473932E+06      -78.5931549   344.828224E+06      -297.680542
             2517   114.942672E+06   -57.471208E+06    -57.47142E+06      -32.1443253      344.828E+06      -140.392334
             2518   114.941904E+06   -57.472904E+06    -57.47258E+06      -139.877090   344.828192E+06       224.858521
             2519   114.942408E+06   -57.470608E+06   -57.470952E+06       270.219086   344.827808E+06      -268.748535
             2520     114.9332E+06   -57.477488E+06   -57.477388E+06  -1.27852637E+03   344.826528E+06       6.85402298
             2521    114.93628E+06   -57.475604E+06   -57.473904E+06   1.50491870E+03   344.829216E+06      -706.568115
             2522   114.933792E+06   -57.477476E+06   -57.477212E+06  -1.56855225E+03   344.827936E+06      -308.941589
             2523   114.944344E+06   -57.469908E+06   -57.469768E+06       285.526855   344.827424E+06      -42.5979042
             2524   114.948704E+06   -57.466404E+06   -57.466404E+06      -333.174438   344.827616E+06      -394.823395
             2525     114.9484E+06   -57.469416E+06   -57.470152E+06       692.690002   344.830944E+06      -279.672882
             2526   114.937392E+06   -57.477012E+06   -57.476676E+06       24.5742378   344.831104E+06       644.561035
             2527   114.933312E+06   -57.483892E+06   -57.482284E+06   1.35948816E+03   344.828416E+06      -413.742981
             2528   114.956408E+06   -57.463268E+06   -57.463864E+06   2.49090820E+03   344.824352E+06   2.16590039E+03
             2529   114.943744E+06   -57.470604E+06   -57.470228E+06       493.292114    344.82784E+06       163.531509
             2530   114.942152E+06   -57.471644E+06   -57.471684E+06      -264.835815      344.828E+06       62.6825142
             2531   114.956184E+06   -57.459272E+06     -57.4606E+06  -2.93661670E+03   344.827648E+06  -1.09387366E+03
             2532   114.967304E+06    -57.45188E+06   -57.453284E+06   5.47979053E+03   344.826848E+06       553.211243
             2533   114.942776E+06   -57.470348E+06   -57.471236E+06      -227.221695   344.827808E+06      -375.759430
             2534   114.942816E+06   -57.471032E+06   -57.471216E+06       69.4968719   344.828128E+06      -122.195786
             2535   114.943376E+06   -57.470272E+06    -57.46966E+06       92.4135513   344.828064E+06      -106.668037
             2536   114.942976E+06   -57.471016E+06   -57.471068E+06       13.3047676   344.828224E+06      -226.962463
             2537   114.929984E+06    -57.48206E+06   -57.483284E+06  -1.39740125E+03   344.831104E+06       973.992859
             2538   114.945688E+06   -57.468972E+06    -57.46882E+06       471.382996    344.82848E+06       325.074829
             2539   114.934192E+06    -57.47628E+06   -57.476068E+06   6.80469824E+03   344.826112E+06       257.088348
             2540   114.942664E+06   -57.471512E+06   -57.471932E+06      -107.270607   344.828448E+06       216.906006
             2541   114.942656E+06   -57.471416E+06   -57.471624E+06       68.3377533   344.828096E+06       127.094711
             2542   114.942552E+06   -57.471272E+06   -57.471368E+06       444.104523   344.827904E+06      -167.741333
             2543    114.95072E+06    -57.46808E+06   -57.468872E+06   1.35533252E+03   344.831456E+06       253.280334
             2544   114.952624E+06   -57.461404E+06   -57.463164E+06  -2.46426123E+03   344.828256E+06       349.195251
             2545   114.944024E+06   -57.470116E+06     -57.4706E+06   4.13486963E+03      344.828E+06       212.124710
             2546    114.89712E+06   -57.502804E+06   -57.502412E+06   2.94176587E+03   344.826944E+06   1.26524377E+03
             2547   114.961464E+06   -57.453836E+06   -57.453024E+06   2.17516650E+03   344.824576E+06      -480.224274
             2548   115.015176E+06   -57.410368E+06    -57.41088E+06       821.877563    344.82352E+06       222.342270
             2549    114.94208E+06     -57.4723E+06   -57.472304E+06       223.692078    344.82816E+06       40.9052124
             2550   114.939328E+06   -57.474028E+06   -57.473616E+06       427.941986   344.828512E+06      -46.7466888
             2551   114.942728E+06   -57.471376E+06   -57.471736E+06       59.3909569   344.827872E+06       132.592957
             2552   114.950832E+06   -57.464844E+06   -57.464476E+06       624.584900   344.828064E+06      -552.732544
             2553   114.962808E+06   -57.453532E+06   -57.453756E+06   6.10336279E+03   344.825952E+06       188.949982
             2554   114.944768E+06   -57.470344E+06    -57.47026E+06  -841.552079E-03   344.828768E+06      -90.4319153
             2555   114.939808E+06    -57.47384E+06   -57.473876E+06      -350.898926    344.82816E+06      -74.3394089
             2556   114.914688E+06   -57.499896E+06   -57.499916E+06       841.553894   344.833792E+06      -768.721558
             2557   114.942864E+06   -57.472524E+06    -57.47166E+06      -213.358002   344.827744E+06      -912.090393
             2558   115.026912E+06   -57.406056E+06     -57.4082E+06   3.09815918E+03    344.82528E+06  -2.12877710E+03
             2559   114.936504E+06   -57.476816E+06   -57.477284E+06  -1.03471313E+03   344.830848E+06       576.836792
             2560    114.94436E+06   -57.470132E+06     -57.4702E+06      -330.663239   344.828224E+06       14.6057558
             2561   114.941008E+06   -57.475804E+06   -57.474604E+06      -62.8709602   344.829152E+06      -358.153687
             2562    114.94532E+06    -57.47034E+06   -57.471212E+06      -934.849792   344.828288E+06      -94.9519653
             2563   114.953472E+06   -57.457576E+06   -57.458332E+06      -298.884888   344.826336E+06   1.91153015E+03
             2564   114.936384E+06   -57.473464E+06   -57.473636E+06      -116.652283   344.825728E+06   1.06037585E+03
             2565    114.94296E+06   -57.470848E+06   -57.470796E+06       128.495605   344.828032E+06      -202.752075
             2566   114.937992E+06   -57.475476E+06    -57.47556E+06       536.698120   344.828544E+06      -54.5044708
             2567   114.943256E+06   -57.470972E+06   -57.470788E+06       284.061279   344.827904E+06       52.1293983
             2568    114.94288E+06   -57.470936E+06   -57.470708E+06       309.882050   344.827904E+06      -96.8781433
             2569   114.942528E+06     -57.4711E+06   -57.471284E+06       95.2926483   344.827872E+06      -165.603867
             2570   114.941472E+06   -57.474768E+06   -57.473428E+06  -1.57347852E+03   344.828672E+06       281.044586
             2571   114.909304E+06     -57.4964E+06    -57.49712E+06  -9.56873926E+03   344.828576E+06      -334.555389
             2572   114.944536E+06   -57.470136E+06   -57.469648E+06      -151.256180   344.827872E+06       9.53111267
             2573    114.94388E+06    -57.46998E+06   -57.469552E+06       147.187424   344.827904E+06       125.753044
             2574   114.942744E+06   -57.471004E+06   -57.470748E+06      -12.4361277   344.827904E+06      -27.5424633
             2575   114.942064E+06   -57.472432E+06    -57.47212E+06       27.5542774    344.82864E+06      -57.4025917
             2576   114.943248E+06   -57.470364E+06     -57.4703E+06       83.4900589   344.827808E+06       82.6889648
             2577   114.943264E+06    -57.47166E+06    -57.47148E+06      -295.086884   344.828576E+06      -30.0727310
             2578    114.94428E+06   -57.470136E+06   -57.470124E+06      -656.990967   344.828032E+06      -14.8582096
             2579   114.944216E+06   -57.469632E+06    -57.46962E+06       22.2693119   344.827424E+06  -973.585963E-03
             2580   114.946528E+06   -57.468164E+06   -57.466704E+06      -53.6014061     344.8288E+06      -232.202362
             2581    114.94596E+06   -57.468608E+06   -57.468504E+06      -88.6339874   344.827808E+06       72.4452362
             2582   114.945984E+06   -57.468672E+06   -57.467156E+06      -19.2367344   344.828512E+06      -55.8495064
             2583   114.945752E+06   -57.470084E+06    -57.46952E+06       226.874283   344.827552E+06       399.738708
             2584    114.94416E+06   -57.470916E+06   -57.471012E+06      -487.814056   344.828992E+06      -209.868073
             2585   114.946328E+06    -57.46758E+06   -57.466176E+06      -432.579254   344.827648E+06       911.992310
             2586   114.946992E+06   -57.467744E+06   -57.466592E+06       603.679749   344.828064E+06       589.994873
             2587   114.945264E+06   -57.469376E+06   -57.469204E+06       76.1753082   344.827904E+06       50.5946121
             2588   114.945064E+06     -57.4695E+06     -57.4689E+06       307.048828   344.828736E+06      -202.990570
             2589   114.943184E+06   -57.467588E+06   -57.467068E+06  -1.86132825E+03   344.823648E+06      -44.0114174
             2590    114.94328E+06    -57.47092E+06    -57.47324E+06   1.29747034E+03   344.828736E+06  -1.09061401E+03
             2591     114.9434E+06   -57.471052E+06   -57.471056E+06       30.7177143   344.827968E+06       140.756119
             2592   114.943512E+06   -57.470608E+06   -57.470712E+06           140.25   344.828032E+06       64.4162292
             2593   114.942072E+06   -57.471084E+06   -57.471568E+06       49.5209312    344.82736E+06       214.443649
             2594   114.941896E+06   -57.472364E+06   -57.472232E+06       136.752914   344.828096E+06      -84.9624939
             2595    114.94232E+06   -57.471452E+06   -57.471544E+06      -3.65799809      344.828E+06      -15.7221708
             2596   114.943984E+06   -57.469952E+06    -57.46974E+06       207.850418   344.827904E+06      -137.152527
             2597   114.952616E+06   -57.458424E+06   -57.459084E+06  -2.85682739E+03   344.822208E+06      -35.9869957
             2598   114.942536E+06   -57.473756E+06   -57.472144E+06  -1.06563220E+03   344.829472E+06      -103.100548
             2599   114.943784E+06   -57.470252E+06   -57.470396E+06       223.057938   344.827904E+06       61.4162560
             2600   114.942216E+06    -57.47144E+06   -57.471524E+06       56.0088196   344.827808E+06       77.1608658
             2601   114.941424E+06   -57.472592E+06   -57.472728E+06       72.0557938   344.828288E+06       61.8254814
             2602   114.939352E+06   -57.473792E+06   -57.473948E+06       468.370697   344.828032E+06       110.183434
             2603   114.943448E+06   -57.470648E+06   -57.470756E+06       140.022690   344.828256E+06       78.2577744
             2604   114.941896E+06   -57.470916E+06   -57.471756E+06      -375.422607   344.826848E+06      -728.009155
             2605   114.942064E+06   -57.471852E+06   -57.471852E+06  -201.420709E-03   344.828032E+06       201.016357
             2606   114.962944E+06   -57.456228E+06   -57.456628E+06       595.882813   344.829216E+06       22.3486023
             2607   114.947016E+06   -57.468788E+06   -57.468196E+06  -1.12087769E+03   344.828544E+06      -563.114075
             2608   114.943824E+06   -57.469992E+06    -57.46996E+06       16.1146584   344.827936E+06       372.965027
             2609   114.943152E+06   -57.470896E+06   -57.471056E+06       97.3148193   344.828224E+06       22.5720825
             2610   114.942976E+06   -57.471148E+06   -57.471288E+06       38.9293022    344.82832E+06       21.1435356
             2611   114.941896E+06   -57.471868E+06   -57.471888E+06      -32.7206688      344.828E+06      -66.5449448
             2612   114.942672E+06    -57.47108E+06   -57.471144E+06       143.477142   344.827744E+06       45.5999184
             2613   114.934056E+06    -57.47746E+06    -57.47606E+06   3.14235059E+03   344.827712E+06   1.61465149E+03
             2614   114.935136E+06   -57.474616E+06   -57.475244E+06       319.967590   344.826336E+06   1.18312024E+03
             2615   114.950872E+06   -57.461364E+06   -57.462312E+06      -505.969147   344.827008E+06       911.508728
             2616   114.940992E+06   -57.473592E+06    -57.47486E+06      -469.730499   344.828544E+06      -479.206726
             2617   114.932976E+06   -57.475856E+06   -57.476352E+06   1.47027368E+03   344.825024E+06       389.630524
             2618      114.942E+06   -57.471788E+06   -57.471852E+06       35.9255638   344.828032E+06       11.0185423
             2619   114.942344E+06     -57.4715E+06   -57.471464E+06       191.172089   344.827936E+06      -104.992706
             2620   114.943752E+06   -57.470392E+06   -57.470672E+06       94.0900879   344.827904E+06       123.753914
             2621   114.953144E+06   -57.458796E+06   -57.458944E+06  -3.31307007E+03    344.82832E+06      -28.1882038
             2622   114.943568E+06   -57.470604E+06   -57.470472E+06       70.4565201      344.828E+06      -105.093140
             2623   114.944856E+06   -57.469072E+06   -57.469144E+06      -320.845306   344.827584E+06      -37.9204330
             2624   114.943488E+06   -57.470404E+06   -57.470828E+06      -198.564041   344.827296E+06       2.12779164
             2625   114.944928E+06   -57.469204E+06   -57.468488E+06      -265.439697   344.828128E+06       32.9881325
             2626   114.943608E+06    -57.47076E+06   -57.470748E+06  -1.47356018E+03   344.828352E+06      -390.809296
             2627   114.970344E+06   -57.446792E+06     -57.4472E+06   6.02502783E+03   344.825568E+06   1.19104712E+03
             2628    114.94328E+06     -57.4707E+06    -57.47108E+06      -750.639038   344.828192E+06       59.5343552
             2629   114.951232E+06   -57.463796E+06   -57.464344E+06      -46.8614693    344.82736E+06       380.420532
             2630   114.943048E+06      -57.471E+06   -57.470804E+06       85.0708694   344.827968E+06       77.4550705
             2631   114.944024E+06    -57.47078E+06    -57.47058E+06      -70.5537643   344.827936E+06      -16.7388191
             2632   114.951728E+06   -57.468784E+06     -57.4672E+06  -1.87391858E+03   344.831648E+06  -1.85745740E+03
             2633   114.943216E+06   -57.473896E+06   -57.473828E+06  -3.23620386E+03   344.829472E+06      -332.711090
             2634   114.969936E+06   -57.453556E+06   -57.454408E+06  -1.68083374E+03   344.827744E+06  -1.86992212E+03
             2635   114.959096E+06   -57.460328E+06   -57.458928E+06   3.76997534E+03   344.829632E+06      -3.70882773
             2636   114.942608E+06   -57.470992E+06   -57.471012E+06       36.7335587    344.82768E+06       31.7362957
             2637    114.93452E+06   -57.479816E+06    -57.48092E+06  -2.32916138E+03   344.829888E+06   1.32079163E+03
             2638   114.943328E+06   -57.472084E+06   -57.470548E+06      -141.790176    344.82832E+06       558.323547
             2639   114.935096E+06   -57.467508E+06   -57.469124E+06   10.3623828E+03   344.817312E+06      -143.350922
             2640   114.939424E+06   -57.470768E+06   -57.471528E+06  -2.74587207E+03   344.825856E+06       399.638275
             2641   114.942448E+06   -57.472188E+06    -57.47184E+06       262.289307   344.827904E+06       15.3845644
             2642   114.941608E+06   -57.472704E+06   -57.470992E+06       415.900299   344.828736E+06      -737.347534
             2643   114.875968E+06     -57.5206E+06   -57.519484E+06  -7.22721631E+03   344.828704E+06  -1.54588770E+03
             2644   114.939432E+06   -57.474612E+06   -57.473188E+06       343.113129   344.826912E+06       75.1462479
             2645   114.940648E+06    -57.47302E+06   -57.473176E+06       557.140198      344.828E+06      -82.1259079
             2646    114.93844E+06   -57.472984E+06    -57.47302E+06      -838.258362    344.82784E+06      -544.883606
             2647   114.885376E+06    -57.52668E+06   -57.524388E+06      -750.951782   344.837536E+06       478.735840
             2648   114.948344E+06   -57.464996E+06    -57.46638E+06   1.57989172E+03   344.827168E+06      -689.782593
             2649   114.938912E+06   -57.474436E+06   -57.474552E+06       293.988342   344.828512E+06       148.875305
             2650   114.951464E+06   -57.465116E+06   -57.463788E+06  -1.40402844E+03   344.830048E+06      -187.944427
             2651    114.97132E+06   -57.444236E+06   -57.445236E+06  -4.56158252E+03   344.820736E+06      -558.198486
             2652    114.94132E+06    -57.47254E+06   -57.472592E+06      -119.824242   344.828256E+06      -13.5493870
             2653    114.93028E+06   -57.480612E+06   -57.480876E+06       4.7165E+03   344.827168E+06       110.709579
             2654   114.948976E+06   -57.466248E+06    -57.46634E+06      -526.300415   344.827936E+06       78.2523727
             2655     114.9526E+06   -57.462788E+06   -57.462984E+06  -2.31173242E+03   344.824992E+06       754.835754
             2656   114.949496E+06   -57.463608E+06   -57.463368E+06   1.22661462E+03   344.828608E+06   1.06644458E+03
             2657    114.94352E+06   -57.470716E+06    -57.47074E+06       173.235962   344.828096E+06      -16.3371010
             2658   114.946072E+06   -57.468408E+06   -57.469132E+06   1.82833374E+03   344.825536E+06      -681.074036
             2659   114.941568E+06    -57.47272E+06   -57.474336E+06   1.68884338E+03   344.826816E+06      -305.125031
             2660    114.95644E+06   -57.462044E+06   -57.462388E+06   2.17539526E+03   344.827072E+06      -913.779236
             2661    114.94676E+06   -57.467748E+06   -57.465912E+06   2.00810010E+03   344.829152E+06      -260.267212
             2662   114.914184E+06   -57.497384E+06   -57.496116E+06  -5.70354932E+03   344.831424E+06      -210.290619
             2663    114.94804E+06    -57.46688E+06   -57.466408E+06   2.38551196E+03   344.828384E+06       658.914001
             2664   114.945272E+06   -57.468336E+06   -57.468152E+06       232.386841   344.827136E+06       779.092834
             2665   114.974696E+06   -57.448444E+06   -57.447548E+06      -781.607056   344.827392E+06  -1.08603064E+03
             2666   114.940808E+06   -57.473364E+06   -57.475028E+06       284.628601   344.828352E+06      -211.139557
             2667   114.944216E+06   -57.469596E+06   -57.469512E+06       567.967590   344.827936E+06       51.2188110
             2668   114.929024E+06   -57.482072E+06   -57.481348E+06   1.86231433E+03   344.830016E+06  -1.42924780E+03
             2669   114.934144E+06   -57.475828E+06   -57.474408E+06   3.02835522E+03   344.831168E+06      -167.142395
             2670     114.9428E+06   -57.471172E+06   -57.471152E+06      -7.47554350   344.827968E+06      -72.7563553
             2671   114.943808E+06   -57.470576E+06   -57.470936E+06      -32.2421951   344.827776E+06      -167.203506
             2672    114.94568E+06   -57.465632E+06   -57.467604E+06      -787.352966   344.827296E+06      -816.846741
             2673   114.927472E+06   -57.486468E+06   -57.488256E+06  -1.48704785E+03   344.830528E+06       184.856888
             2674   114.942376E+06   -57.471008E+06   -57.470612E+06      -299.357269   344.828224E+06       98.7754669
             2675   114.943152E+06   -57.471284E+06   -57.471296E+06       347.870239   344.827936E+06       48.9058571
             2676   114.942384E+06   -57.471084E+06   -57.471244E+06       25.0111542    344.82832E+06       54.3471375
             2677   114.957352E+06   -57.459164E+06     -57.4588E+06      -285.209442   344.827584E+06      -102.295746
             2678    114.94384E+06   -57.468672E+06   -57.468896E+06       299.299774   344.826592E+06       188.505798
             2679   114.938624E+06   -57.474724E+06    -57.47514E+06      -345.351196   344.828672E+06       72.5585251
             2680   114.942392E+06   -57.471408E+06   -57.471432E+06       21.3934841   344.828032E+06       33.7037926
             2681    114.93556E+06   -57.477936E+06   -57.477612E+06      -720.874207   344.829312E+06       335.072906
             2682       114.94E+06   -57.473788E+06   -57.473776E+06       274.638550   344.828096E+06      -149.073212
             2683   114.932136E+06   -57.479824E+06   -57.479296E+06   2.41175928E+03   344.828192E+06      -26.5682278
             2684   114.948576E+06   -57.465872E+06   -57.463752E+06      -883.875244    344.82928E+06       658.499512
             2685   114.941136E+06   -57.472456E+06    -57.47276E+06      -16.4616852   344.828288E+06       56.1345940
             2686   114.942536E+06    -57.47184E+06   -57.472032E+06       2.42731905   344.828032E+06      -19.2116203
             2687   114.941784E+06     -57.4721E+06   -57.472112E+06       117.428238   344.827904E+06      -59.8034134
             2688   114.940328E+06   -57.472776E+06   -57.472392E+06       116.777252    344.82832E+06      -494.278778
             2689   114.946752E+06    -57.46662E+06    -57.46622E+06      -183.932053   344.827456E+06      -337.827942
             2690       114.94E+06   -57.473316E+06      -57.474E+06       278.876709   344.827744E+06       536.556824
             2691   114.944168E+06   -57.469596E+06     -57.4695E+06       15.0124826   344.827264E+06      -31.4689083
             2692    114.94288E+06   -57.470896E+06   -57.471072E+06      -7.98406219   344.827936E+06      -43.7496452
             2693   114.945792E+06   -57.468164E+06   -57.467232E+06      -337.140167   344.827488E+06      -267.502045
             2694   114.944968E+06   -57.469352E+06   -57.469448E+06       227.394592   344.828096E+06       86.5060730
             2695   114.945016E+06   -57.469176E+06    -57.46918E+06       273.395721   344.828128E+06       194.901733
             2696   114.972088E+06   -57.446572E+06   -57.445828E+06   3.66460400E+03   344.824736E+06       244.508072
             2697   114.941568E+06    -57.47202E+06    -57.47272E+06      -189.512924   344.829408E+06      -42.9783897
             2698   114.943472E+06   -57.470932E+06   -57.471096E+06      -40.5680199   344.828096E+06      -44.2165833
             2699    114.94456E+06    -57.46994E+06   -57.469916E+06       80.4712753   344.827776E+06      -49.3515472
             2700   114.940824E+06   -57.473068E+06    -57.47316E+06       227.413788   344.828576E+06       174.436844
             2701   114.944968E+06   -57.473392E+06   -57.473268E+06  -1.97375842E+03   344.830432E+06      -622.643311
             2702   114.943128E+06   -57.470728E+06   -57.470416E+06      -27.7384548   344.828032E+06       198.315567
             2703   114.947056E+06   -57.464296E+06   -57.466712E+06   1.53142529E+03    344.82752E+06       780.557800
             2704    114.93768E+06   -57.477808E+06   -57.477456E+06      -745.309631   344.831392E+06       206.605301
             2705   114.942856E+06   -57.470968E+06   -57.471028E+06       74.4691162   344.827808E+06       44.1448936
             2706   114.941592E+06   -57.471492E+06    -57.47216E+06      -160.772125   344.827584E+06       134.656631
             2707    114.94376E+06   -57.470192E+06   -57.469468E+06       360.271149   344.827712E+06       52.6331787
             2708   114.937424E+06   -57.474768E+06   -57.475712E+06  -2.69922681E+03   344.826016E+06       158.464005
             2709   114.949104E+06   -57.463448E+06   -57.466548E+06   1.16803748E+03   344.828096E+06       47.2660637
             2710    114.93756E+06   -57.475948E+06   -57.477092E+06      -533.137390   344.828928E+06       257.186188
             2711    114.93808E+06    -57.47424E+06    -57.47456E+06       277.450806   344.827616E+06      -130.851410
             2712   114.938872E+06    -57.47852E+06   -57.478228E+06       384.338776   344.829632E+06   1.28996094E+03
             2713   114.942808E+06   -57.470992E+06    -57.47322E+06       48.2541809   344.827968E+06      -211.560059
             2714   114.949496E+06     -57.4681E+06   -57.468624E+06      -357.970856   344.828896E+06      -42.5427170
             2715   114.943976E+06   -57.469752E+06   -57.469432E+06       215.449554   344.827872E+06      -290.716125
             2716   114.932048E+06   -57.479808E+06   -57.480384E+06      -147.004654   344.830048E+06       408.783203
             2717   114.940944E+06   -57.469992E+06   -57.470264E+06       37.3114891    344.82432E+06      -280.522980
             2718   114.915288E+06   -57.494628E+06   -57.493464E+06  -2.21459204E+03   344.832096E+06       524.510498
             2719    115.01844E+06   -57.404864E+06   -57.405812E+06   3.02486426E+03   344.818144E+06       497.113953
             2720    114.97352E+06   -57.449748E+06   -57.449624E+06   1.84726917E+03   344.829184E+06  -1.07247607E+03
             2721   114.936336E+06    -57.48062E+06   -57.479952E+06       703.227844   344.829472E+06      -174.908432
             2722   114.959768E+06   -57.457476E+06   -57.459272E+06   3.54737354E+03   344.825856E+06      -696.281616
             2723   114.944688E+06   -57.472868E+06   -57.472828E+06   4.99239404E+03   344.826112E+06  -1.70013574E+03
             2724   114.940808E+06   -57.468952E+06   -57.469916E+06   1.33393372E+03   344.825888E+06       396.643097
             2725   114.939328E+06    -57.47298E+06   -57.473756E+06       166.605331   344.827168E+06      -294.668335
             2726   114.961264E+06   -57.452772E+06   -57.453572E+06   3.08808374E+03   344.824928E+06       328.573517
             2727   114.936064E+06   -57.477408E+06   -57.477156E+06      -144.590347    344.83008E+06      -339.210999
             2728   114.943968E+06   -57.467956E+06   -57.467668E+06  -2.85526245E+03   344.826304E+06      -336.078125
             2729   114.944096E+06   -57.470492E+06    -57.47036E+06       261.905853   344.827968E+06       72.2529373
             2730   114.981184E+06    -57.44218E+06   -57.442212E+06  -4.05412280E+03   344.828576E+06      -244.590988
             2731    114.93984E+06   -57.473496E+06   -57.473584E+06       143.382446   344.828256E+06       49.2359047
             2732   114.944488E+06   -57.469576E+06   -57.469444E+06      -237.934952   344.828032E+06      -130.947632
             2733    114.94444E+06   -57.470136E+06   -57.470128E+06       420.770508   344.828128E+06      -38.5201073
             2734   114.940488E+06   -57.472912E+06    -57.47294E+06       328.887970   344.827904E+06      -50.2731285
             2735     114.9446E+06   -57.469332E+06   -57.469092E+06       474.551880     344.8272E+06       174.187149
             2736     114.9492E+06   -57.463516E+06   -57.463364E+06   1.63493835E+03   344.824832E+06      -71.4246292
             2737   114.980184E+06   -57.440256E+06    -57.43944E+06  -4.53267676E+03   344.821568E+06       266.959839
             2738   114.943456E+06   -57.470172E+06   -57.470136E+06      -325.197723   344.827392E+06      -14.6600103
             2739   114.924816E+06   -57.484836E+06   -57.485712E+06  -2.56134888E+03   344.826752E+06      -754.124817
             2740   114.890608E+06   -57.514004E+06   -57.514348E+06      -836.377380   344.827648E+06      -769.682373
             2741   114.945072E+06   -57.469184E+06    -57.46906E+06       52.9186935   344.827264E+06       137.838409
             2742   114.941368E+06   -57.472288E+06    -57.47222E+06       473.358368   344.828096E+06       103.192535
             2743   114.924312E+06   -57.484748E+06   -57.483924E+06   5.73211523E+03    344.82672E+06       439.866241
             2744   114.982808E+06    -57.43412E+06   -57.435836E+06  -5.47075244E+03    344.82064E+06       113.246468
             2745   114.939672E+06   -57.472496E+06   -57.473452E+06   1.43653406E+03   344.826528E+06   1.65216772E+03
             2746   114.955344E+06   -57.457688E+06   -57.458488E+06  -2.66295752E+03   344.824736E+06       245.938919
             2747   114.944224E+06   -57.469604E+06   -57.469376E+06      -337.862030   344.828928E+06       830.551147
             2748    114.93864E+06   -57.474784E+06   -57.474868E+06      -600.320618   344.828256E+06      -7.04334450
             2749    114.94492E+06   -57.469752E+06   -57.469756E+06      -4.88289690   344.828224E+06      -14.6978073
             2750   114.938488E+06   -57.475036E+06   -57.477124E+06       453.831818   344.829088E+06      -476.373657
             2751   114.942712E+06   -57.470272E+06   -57.470404E+06      -397.228729    344.82736E+06      -119.013489
             2752   114.945184E+06   -57.468948E+06   -57.469332E+06       278.197937   344.828096E+06      -292.494537
             2753   114.916264E+06   -57.489616E+06   -57.489964E+06       369.839172     344.8224E+06      -912.206787
             2754   114.940976E+06   -57.472888E+06   -57.475696E+06  -2.31137695E+03    344.82928E+06       388.473206
             2755   114.945248E+06   -57.475224E+06   -57.475404E+06       299.215027   344.828704E+06  -1.71213525E+03
             2756    114.94216E+06   -57.471876E+06   -57.471944E+06      -70.6788101   344.827424E+06       25.8606014
             2757    114.94504E+06    -57.47008E+06    -57.46954E+06      -130.684250   344.828768E+06      -281.291077
             2758    114.94212E+06   -57.471904E+06   -57.471672E+06      -123.325615   344.828096E+06       12.3893309
             2759   114.944216E+06   -57.470324E+06    -57.47032E+06       286.584229   344.828256E+06      -38.1901360
             2760   114.930528E+06   -57.480092E+06   -57.479636E+06       567.793823   344.829248E+06       704.541992
             2761   114.899736E+06   -57.507008E+06   -57.506856E+06  -1.57351660E+03   344.833728E+06   1.08796777E+03
             2762   114.942648E+06   -57.471548E+06   -57.471652E+06       493.450012   344.828096E+06      -26.5725479
             2763   114.941688E+06   -57.472252E+06   -57.472112E+06      -577.500366   344.828032E+06       115.558281
             2764    114.94312E+06   -57.470368E+06   -57.470328E+06       186.024231   344.827328E+06      -1.46085382
             2765   114.988368E+06   -57.437276E+06   -57.436764E+06  -3.82909937E+03   344.826432E+06  -1.12601172E+03
             2766    114.94124E+06   -57.473992E+06    -57.47366E+06      -389.961212   344.829184E+06      -358.884308
             2767   114.940128E+06   -57.473624E+06   -57.473556E+06      -221.470947   344.828192E+06      -64.9010696
             2768   114.945056E+06    -57.46998E+06   -57.469964E+06       143.631500   344.828576E+06  -848.207057E-03
             2769   114.946272E+06   -57.468904E+06   -57.468148E+06       480.724518    344.82896E+06       357.661255
             2770    114.94692E+06   -57.468872E+06    -57.46774E+06       595.710999     344.8288E+06       144.860504
             2771   114.941976E+06    -57.47182E+06   -57.471948E+06       123.146568   344.827872E+06      -39.6133232
             2772   114.940496E+06   -57.472528E+06   -57.471392E+06       117.582626   344.828672E+06       41.4671593
             2773   114.937848E+06    -57.47496E+06   -57.475264E+06       295.915344   344.828192E+06       56.1672668
             2774   114.945992E+06   -57.467796E+06   -57.467856E+06       177.447449   344.827008E+06       16.5131588
             2775    114.98532E+06   -57.437632E+06   -57.436904E+06   2.11874121E+03   344.829696E+06       674.407959
             2776   114.929984E+06   -57.478268E+06   -57.478084E+06  -1.07784851E+03   344.824768E+06      -181.466110
             2777   114.941768E+06    -57.47014E+06   -57.471912E+06      -61.6944046   344.827296E+06      -33.5131187
             2778   114.937392E+06   -57.475812E+06   -57.474652E+06      -657.137024   344.828256E+06      -351.539001
             2779   114.941208E+06   -57.472288E+06   -57.472024E+06       211.882629   344.828064E+06      -216.324738
             2780   114.956848E+06   -57.460052E+06   -57.458168E+06       296.100616   344.829696E+06       43.9561806
             2781   114.955024E+06   -57.460916E+06     -57.4595E+06       14.9406357   344.827872E+06       77.6967697
             2782   114.926472E+06   -57.485316E+06   -57.486528E+06  -1.33785718E+03    344.83168E+06       929.662781
             2783   114.938088E+06    -57.47728E+06    -57.47686E+06      -328.329224    344.82928E+06   1.13193457E+03
             2784   114.940784E+06    -57.47236E+06   -57.472492E+06       338.636627   344.827072E+06      -277.803284
             2785   114.954736E+06   -57.462108E+06   -57.463268E+06  -1.78438403E+03   344.827872E+06   1.24860315E+03
             2786   114.942296E+06      -57.472E+06    -57.47198E+06      -56.1147118   344.828384E+06      -164.534164
             2787   114.957152E+06   -57.457636E+06    -57.45814E+06   1.46663611E+03    344.82688E+06      -915.661865
             2788   114.871688E+06    -57.53122E+06   -57.530796E+06  -1.58514478E+03   344.835552E+06       397.144501
             2789   114.943008E+06   -57.470892E+06   -57.470512E+06       50.3974190   344.827872E+06      -42.7348251
             2790   114.944016E+06   -57.470904E+06    -57.47072E+06       910.326111   344.826848E+06       340.935333
             2791   114.964288E+06   -57.450052E+06   -57.450084E+06      -359.083527   344.823072E+06      -23.0123672
             2792   114.943512E+06    -57.47036E+06   -57.470336E+06       53.6284027    344.82768E+06      -32.2772064
             2793    114.87716E+06   -57.523408E+06    -57.52314E+06  -2.47998389E+03   344.828736E+06      -505.538757
             2794   114.943872E+06   -57.469916E+06   -57.469688E+06      -69.0964279   344.827424E+06      -357.647217
             2795    114.94336E+06   -57.471148E+06   -57.471212E+06      -263.077789   344.828448E+06       30.2532654
             2796   114.944336E+06   -57.469144E+06    -57.47066E+06       725.008240   344.827296E+06      -122.377403
             2797   114.946056E+06   -57.471224E+06   -57.471468E+06   1.73927478E+03   344.830208E+06       642.376099
             2798    114.94264E+06   -57.471632E+06   -57.471216E+06       6.56602049   344.828064E+06      -99.6904984
             2799   114.943272E+06   -57.470892E+06   -57.470472E+06       52.0086250   344.828032E+06      -180.536118
             2800     114.9002E+06   -57.506552E+06   -57.507516E+06   1.76436743E+03   344.831552E+06       18.4734669
             2801   114.943464E+06   -57.470572E+06   -57.470788E+06       50.8853416   344.827808E+06       13.5324879
             2802   114.938552E+06   -57.474124E+06   -57.475836E+06  -1.40881006E+03   344.828608E+06      -150.639526
             2803   114.948048E+06   -57.468492E+06   -57.469416E+06      -363.492767   344.829184E+06       291.316345
             2804   114.946656E+06   -57.467924E+06   -57.467536E+06      -394.890930   344.827584E+06       55.9634628
             2805   114.946848E+06   -57.468704E+06   -57.468064E+06      -785.127625   344.826976E+06      -153.426056
             2806    114.91992E+06   -57.491792E+06   -57.491112E+06   5.58907471E+03    344.83184E+06       316.917175
             2807   114.943296E+06   -57.470924E+06   -57.470972E+06       100.713745   344.828128E+06       27.2945557
             2808   114.946968E+06   -57.467524E+06    -57.46756E+06       341.705719   344.827584E+06      -17.8506432
             2809   114.946144E+06   -57.467244E+06   -57.466668E+06       125.879807   344.826656E+06       761.700500
             2810   114.942984E+06   -57.470776E+06   -57.471132E+06      -397.094269   344.828128E+06       95.0605164
             2811   114.901984E+06   -57.503952E+06   -57.502996E+06       157.912247   344.826432E+06       388.012634
             2812   115.015224E+06   -57.409356E+06    -57.41104E+06     -4.88825E+03    344.82016E+06      -912.281433
             2813   114.918744E+06   -57.488328E+06   -57.483372E+06   2.95693530E+03   344.831264E+06       10.5687160
             2814   114.940832E+06   -57.473528E+06   -57.473404E+06      -104.002441   344.828544E+06       273.012268
             2815   114.948464E+06   -57.467284E+06   -57.466604E+06       23.1723614     344.8272E+06       61.9731941
             2816   114.942152E+06   -57.471896E+06   -57.471636E+06      -62.6670761   344.827808E+06       126.439102
             2817   114.943288E+06   -57.470268E+06   -57.470564E+06       162.693848    344.82784E+06      -1.49177885
             2818   114.910136E+06   -57.500308E+06    -57.50034E+06   11.0409482E+03   344.832064E+06      -23.5334721
             2819   114.944856E+06   -57.470092E+06   -57.470108E+06       183.851273   344.828576E+06   878.656924E-03
             2820    114.93916E+06   -57.470824E+06   -57.472196E+06  -1.31896863E+03   344.825728E+06       51.9966354
             2821   114.939288E+06   -57.478616E+06   -57.478832E+06   4.93084766E+03   344.833216E+06       60.4246063
             2822   114.947528E+06   -57.473956E+06   -57.475092E+06   1.60277136E+03   344.833248E+06   1.12343286E+03
             2823   114.944024E+06   -57.469752E+06    -57.46982E+06       196.699738    344.82752E+06      -399.249146
             2824     114.9516E+06    -57.46294E+06   -57.462368E+06  -1.47945203E+03   344.828448E+06       610.336548
             2825   114.950424E+06   -57.460372E+06   -57.460476E+06       13.2805481   344.826592E+06   1.01903210E+03
             2826    114.94244E+06    -57.47216E+06      -57.472E+06      -4.32918215   344.828288E+06       146.780350
             2827   114.949376E+06    -57.46334E+06    -57.46434E+06       98.9839859   344.826304E+06       478.064178
             2828   114.941944E+06   -57.471896E+06   -57.471444E+06       169.345703   344.828128E+06       115.822411
             2829   114.939128E+06   -57.473652E+06   -57.473652E+06      -9.00177956   344.827456E+06   2.72360351E-03
             2830   114.910672E+06   -57.495364E+06   -57.495632E+06  -3.05414404E+03   344.826176E+06      -249.959366
             2831   114.944104E+06   -57.471356E+06   -57.472652E+06      -503.212952   344.830112E+06  -1.07286047E+03
             2832   114.950992E+06   -57.467984E+06    -57.46806E+06       846.361511    344.82848E+06  -1.00583325E+03
             2833   114.941896E+06   -57.471696E+06   -57.471832E+06      -835.720093   344.827776E+06       197.336853
             2834   114.951528E+06     -57.4682E+06     -57.4682E+06  -2.79472168E+03   344.830336E+06      -781.857605
             2835   114.943624E+06   -57.470892E+06   -57.470732E+06       55.2512627   344.827904E+06       122.116165
             2836   114.944896E+06   -57.472956E+06    -57.47164E+06      -36.5196838    344.82832E+06      -596.148682
             2837   114.941624E+06   -57.472292E+06   -57.472892E+06      -159.638748   344.827712E+06      -48.5834503
             2838     114.9418E+06   -57.472108E+06   -57.472216E+06      -1.71641779   344.828256E+06       6.34094381
             2839   114.895824E+06   -57.509752E+06    -57.51042E+06      -27.4099464   344.831136E+06       778.077515
             2840   114.943032E+06   -57.471408E+06   -57.471404E+06      -58.9235535   344.828416E+06      -2.33274102
             2841   114.879584E+06   -57.521524E+06   -57.522196E+06  -3.18780957E+03    344.82864E+06      -313.109955
             2842   114.944256E+06   -57.469608E+06   -57.469364E+06       16.1021786    344.82768E+06      -188.240204
             2843   114.940768E+06   -57.473352E+06    -57.47368E+06      -214.807587   344.828128E+06      -21.5246143
             2844    114.94484E+06   -57.469736E+06    -57.46966E+06      -107.828255   344.828192E+06      -39.3062057
             2845   114.943456E+06     -57.4703E+06    -57.47034E+06      -142.006912   344.827936E+06      -27.9486790
             2846   114.944024E+06   -57.469808E+06   -57.469192E+06   1.12755212E+03   344.827648E+06       54.8774757
             2847    114.94176E+06   -57.472476E+06   -57.472332E+06      -422.132996    344.82816E+06       67.4308014
             2848   114.944544E+06   -57.469776E+06   -57.469852E+06       357.131104   344.827968E+06      -2.76333952
             2849   114.942496E+06   -57.471628E+06   -57.471556E+06      -58.7907639   344.827968E+06       290.483215
             2850   114.942184E+06   -57.471272E+06   -57.470916E+06       348.654480      344.828E+06       55.0664558
             2851   114.942912E+06   -57.470988E+06   -57.471392E+06      -85.8326797   344.827776E+06      -189.371933
             2852   114.943256E+06   -57.470608E+06   -57.469768E+06       164.839218      344.828E+06      -380.250122
             2853   114.893208E+06   -57.517004E+06   -57.517724E+06      -309.796936   344.834656E+06      -433.314026
             2854   114.927984E+06   -57.481984E+06   -57.482764E+06   2.46546240E+03   344.826144E+06      -113.199898
             2855     114.9426E+06   -57.471412E+06   -57.471644E+06       323.893616   344.828224E+06       304.898071
             2856   114.940208E+06   -57.472856E+06   -57.472628E+06      -96.9805298   344.827296E+06      -70.0902786
             2857    114.94192E+06   -57.471816E+06   -57.471528E+06       8.36075115    344.82816E+06       220.731659
             2858    114.94412E+06   -57.470088E+06    -57.46994E+06      -102.851181   344.827776E+06       178.251663
             2859   114.948424E+06   -57.470608E+06   -57.473396E+06   4.43999365E+03    344.82944E+06       568.325012
             2860   114.947352E+06   -57.465252E+06   -57.464772E+06      -69.3221741    344.82688E+06       40.1618500
             2861   114.941584E+06   -57.472412E+06   -57.472596E+06      -153.649506   344.827264E+06      -103.010948
             2862    114.93524E+06   -57.477964E+06      -57.478E+06      -128.888214   344.829088E+06      -67.3775101
             2863    114.94552E+06   -57.468684E+06   -57.469088E+06      -299.335052   344.827104E+06      -156.528259
             2864   114.942152E+06     -57.4722E+06   -57.472376E+06      -204.439453   344.827424E+06       85.9658051
             2865   114.924464E+06    -57.48892E+06    -57.48888E+06   2.35197266E+03   344.831328E+06      -524.855591
             2866   114.942632E+06   -57.471156E+06    -57.47092E+06      -136.200455   344.827936E+06       76.3307190
             2867   114.938624E+06     -57.4743E+06    -57.47416E+06       315.489929      344.828E+06      -279.858307
             2868   114.941568E+06   -57.472228E+06   -57.472016E+06       268.373688      344.828E+06       73.4949722
             2869   114.893888E+06   -57.513716E+06   -57.512668E+06  -6.32508350E+03   344.834624E+06   1.08886316E+03
             2870   114.971832E+06    -57.45004E+06   -57.451816E+06   2.63824902E+03   344.825216E+06       131.192749
             2871   114.939792E+06   -57.475464E+06   -57.474788E+06       198.181442   344.828192E+06      -64.2293472
             2872     114.9432E+06   -57.471548E+06    -57.47124E+06      -631.810120   344.827232E+06      -375.965942
             2873   114.939744E+06   -57.476272E+06   -57.477084E+06   9.50466113E+03    344.82992E+06      -237.824448
             2874   114.943488E+06   -57.470124E+06   -57.470192E+06       23.1451778   344.827712E+06      -411.219299
             2875   114.942304E+06    -57.47162E+06   -57.471388E+06       39.2925911   344.827904E+06      -108.345490
             2876   114.965048E+06   -57.456468E+06   -57.456624E+06       412.970612   344.827936E+06  -1.01406781E+03
             2877   114.940608E+06    -57.47374E+06    -57.47022E+06  -1.03712378E+03   344.827968E+06  -1.02471021E+03
             2878   114.944512E+06   -57.469432E+06   -57.470052E+06       957.515137   344.828384E+06  -1.75494373E+03
             2879    114.92284E+06   -57.489648E+06   -57.489456E+06  -2.79037939E+03   344.833888E+06       851.955811
             2880   114.945912E+06   -57.468052E+06    -57.46904E+06       463.498627   344.827136E+06       876.134827
             2881    114.94268E+06    -57.47136E+06   -57.471356E+06       28.4176674   344.827936E+06      -149.999802
             2882   114.935688E+06   -57.476316E+06    -57.47644E+06      -811.928467   344.826304E+06      -508.598480
             2883   114.944704E+06     -57.4691E+06   -57.468584E+06       195.960388   344.827744E+06      -57.9070702
             2884   114.943976E+06    -57.47032E+06   -57.470404E+06      -81.5042572    344.82816E+06       14.1430750
             2885   114.941224E+06   -57.472072E+06    -57.47232E+06      -14.9276352   344.827776E+06      -17.7954559
             2886     114.9426E+06   -57.473316E+06   -57.473736E+06       398.275665   344.829504E+06      -498.869690
             2887   114.943064E+06   -57.470156E+06   -57.469996E+06      -113.607162   344.827232E+06      -226.871338
             2888   114.942648E+06   -57.471436E+06    -57.47122E+06       64.3316269   344.828064E+06       267.437744
             2889    114.94436E+06   -57.467364E+06   -57.469228E+06  -1.01861609E+03    344.82736E+06      -395.842957
             2890   114.941072E+06   -57.473836E+06   -57.473944E+06       125.812759   344.828384E+06      -440.414948
             2891   114.945488E+06   -57.469144E+06   -57.469056E+06      -174.916245    344.82784E+06   151.787907E-03
             2892   114.941744E+06   -57.473564E+06    -57.47382E+06      -748.527893    344.82672E+06      -866.875183
             2893   114.940416E+06   -57.475292E+06    -57.47618E+06       71.1970139   344.827968E+06      -816.963013
             2894   114.942264E+06   -57.471568E+06   -57.471864E+06      -455.757965    344.82784E+06       44.2516708
             2895   114.941232E+06   -57.469024E+06   -57.470192E+06  -1.33787170E+03    344.82688E+06      -724.988953
             2896   114.943256E+06    -57.47068E+06   -57.470452E+06       35.5769577   344.827904E+06      -27.1237278
             2897   114.941176E+06   -57.471752E+06   -57.472148E+06       229.735870   344.827072E+06      -345.571442
             2898   114.948048E+06    -57.46728E+06    -57.46692E+06       532.678772   344.828128E+06       324.176147
             2899   114.943272E+06   -57.470304E+06   -57.469424E+06  -1.38439709E+03   344.828768E+06      -928.088928
             2900    114.94416E+06   -57.469284E+06      -57.469E+06      -33.2260704   344.827936E+06      -381.806335
             2901   114.943528E+06   -57.470532E+06     -57.4707E+06       77.1852188    344.82816E+06       29.7038612
             2902   114.942448E+06   -57.471552E+06    -57.47146E+06       80.5864182   344.827872E+06       1.72668874
             2903    114.96856E+06   -57.448856E+06   -57.448712E+06       323.458344   344.822912E+06      -318.115387
             2904   114.943696E+06     -57.4704E+06   -57.469656E+06      -236.827988   344.826272E+06  -1.76150024E+03
             2905   114.925248E+06   -57.486624E+06   -57.486052E+06   1.62355298E+03   344.829632E+06      -768.391357
             2906   114.944352E+06   -57.469116E+06   -57.468752E+06       213.564438   344.827744E+06      -190.350082
             2907   114.944016E+06   -57.468024E+06   -57.467348E+06      -949.941406   344.826336E+06       293.718018
             2908   114.942232E+06   -57.471824E+06   -57.471996E+06      -138.112488   344.828032E+06       96.8842468
             2909    114.93728E+06    -57.48258E+06   -57.485692E+06      -488.988525   344.832064E+06       750.537354
             2910    114.94752E+06    -57.46648E+06   -57.466052E+06  -1.58378455E+03   344.827968E+06      -181.100677
             2911    114.94436E+06   -57.470176E+06   -57.469852E+06      -560.445129   344.828192E+06       95.2681808
             2912   114.970232E+06   -57.444308E+06   -57.445804E+06  -2.74388818E+03   344.820032E+06       122.922012
             2913   114.957576E+06   -57.456488E+06   -57.458096E+06  -3.90920020E+03   344.822432E+06       193.654770
             2914   114.945752E+06   -57.469212E+06   -57.468948E+06       55.8260918   344.827616E+06       51.4070663
             2915   114.943552E+06    -57.47078E+06   -57.470524E+06      -122.521301   344.827968E+06      -41.5535851
             2916   114.941496E+06   -57.472464E+06   -57.472448E+06      -92.2488785   344.828448E+06      -178.316742
             2917   114.935448E+06   -57.478108E+06     -57.4781E+06   1.26902466E+03   344.827776E+06       842.703552
             2918    114.94676E+06    -57.46826E+06   -57.466984E+06      -278.239044   344.828576E+06       302.963501
             2919   114.942432E+06   -57.472344E+06   -57.473172E+06       80.1281128    344.82816E+06       167.960617
             2920   114.947112E+06   -57.469292E+06   -57.468452E+06      -589.083252   344.827616E+06       366.644897
             2921   114.943064E+06   -57.471352E+06   -57.471224E+06       212.664032    344.82864E+06       189.873108
             2922   114.931632E+06     -57.4837E+06   -57.481416E+06   2.13712207E+03   344.828864E+06      -228.073410
             2923   114.964032E+06   -57.446852E+06    -57.44508E+06      -864.020996   344.820352E+06      -968.181824
             2924   114.942984E+06   -57.471552E+06   -57.471928E+06       38.8529892   344.828224E+06       206.030319
             2925     114.9424E+06   -57.471176E+06   -57.471712E+06      -9.05425644   344.827744E+06       70.4813919
             2926    114.94524E+06   -57.468236E+06   -57.468452E+06   1.41720459E+03   344.827488E+06       704.893250
             2927   114.946448E+06    -57.46712E+06   -57.466804E+06   1.69470715E+03    344.82816E+06       922.167542
             2928   114.905672E+06   -57.502812E+06   -57.501064E+06   3.80294165E+03   344.834016E+06  -1.03148181E+03
             2929   114.935112E+06   -57.473812E+06   -57.474804E+06  -1.32995044E+03   344.827552E+06      -318.169342
             2930   114.928792E+06   -57.488228E+06    -57.48738E+06  -1.71493945E+03   344.833184E+06       89.6563187
             2931   114.881208E+06   -57.520888E+06   -57.524168E+06  -3.18969897E+03    344.83472E+06      -838.929260
             2932    114.90624E+06   -57.505036E+06   -57.509668E+06      -883.037415   344.835008E+06       57.7548561
             2933   114.944096E+06   -57.470524E+06   -57.470332E+06       138.425766   344.828032E+06      -55.3714676
             2934   114.941432E+06   -57.472152E+06   -57.472136E+06        -596.0625      344.828E+06       54.2282028
             2935   114.939816E+06   -57.472916E+06   -57.473412E+06       376.200104   344.827456E+06       133.555344
             2936   114.925712E+06     -57.4801E+06   -57.481812E+06       954.455994   344.827456E+06   1.33253357E+03
             2937   114.943224E+06    -57.47148E+06   -57.471332E+06      -138.062515    344.82784E+06       31.5695724
             2938       114.95E+06   -57.466364E+06   -57.467188E+06      -728.033875   344.827008E+06   1.10585669E+03
             2939   114.916872E+06    -57.49004E+06     -57.4904E+06   6.41846143E+03   344.827712E+06       857.149963
             2940   114.924944E+06   -57.488336E+06   -57.489396E+06  -6.57016016E+03   344.829088E+06       212.154221
             2941   114.933736E+06   -57.477956E+06   -57.475208E+06       956.416748    344.82656E+06   1.59039172E+03
             2942   114.939984E+06   -57.473544E+06    -57.47356E+06       98.8951340   344.827776E+06       120.817406
             2943   114.942704E+06    -57.47158E+06   -57.471108E+06      -15.7947998   344.828256E+06       292.271271
             2944    114.94568E+06   -57.468192E+06   -57.468404E+06       243.717514    344.82704E+06      -210.314026
             2945   114.924576E+06   -57.487472E+06   -57.486192E+06      -886.676331   344.828512E+06       372.825378
             2946   114.941912E+06   -57.472016E+06   -57.471764E+06       41.6849060   344.828128E+06       213.609756
             2947   114.941336E+06   -57.472932E+06    -57.47314E+06      -86.7796326   344.828544E+06      -88.2074432
             2948   114.943616E+06   -57.470616E+06   -57.470768E+06       54.2096786    344.82784E+06      -9.96322823
             2949    114.94584E+06   -57.469188E+06   -57.468732E+06       380.109528   344.827872E+06      -157.625412
             2950   114.940808E+06   -57.473104E+06   -57.473116E+06      -399.334717   344.827776E+06      -332.181488
             2951   114.941936E+06   -57.471472E+06   -57.471448E+06      -139.022568      344.828E+06      -379.835419
             2952   114.941776E+06   -57.472124E+06   -57.472236E+06      -11.0824947   344.828096E+06       160.987869
             2953   114.941816E+06    -57.47216E+06   -57.472388E+06      -48.8859253   344.827936E+06       43.6322365
             2954   114.919384E+06   -57.487488E+06    -57.48686E+06       272.857239    344.82992E+06       767.449036
             2955   114.943704E+06   -57.470432E+06   -57.470688E+06       33.2920685   344.827872E+06      -19.3221817
             2956   114.944248E+06   -57.473704E+06   -57.471828E+06       737.664246   344.828672E+06      -493.642242
             2957   114.943256E+06   -57.470744E+06    -57.47094E+06      -226.432312   344.828224E+06       307.834961
             2958   114.944096E+06   -57.469944E+06   -57.470016E+06       271.826416   344.827968E+06       133.012558
             2959   114.943352E+06    -57.47076E+06   -57.470728E+06      -251.429016    344.82816E+06      -22.7939014
             2960   114.940104E+06   -57.472984E+06   -57.473564E+06      -162.816895   344.828096E+06       286.736237
             2961   114.941056E+06   -57.474848E+06    -57.47494E+06       99.9158859   344.827424E+06      -306.632935
             2962    114.94444E+06   -57.469964E+06   -57.469552E+06       209.109619   344.827392E+06      -190.720642
             2963   114.941968E+06   -57.471096E+06   -57.472236E+06       886.177063   344.827936E+06       594.263550
             2964   114.946896E+06   -57.467848E+06   -57.467476E+06       58.9327393   344.827232E+06      -178.318375
             2965   114.935624E+06    -57.47716E+06     -57.4746E+06  -4.62713965E+03   344.825824E+06      -181.055481
             2966   114.942184E+06    -57.47108E+06   -57.471024E+06       164.093811   344.828224E+06       18.1289711
             2967   114.943848E+06   -57.470368E+06   -57.471004E+06      -121.481369   344.827968E+06      -370.551697
             2968   114.918272E+06   -57.489012E+06   -57.488884E+06      -95.0881119   344.826272E+06       103.017448
             2969   114.943984E+06     -57.4692E+06   -57.469784E+06       92.9599533      344.828E+06      -324.249390
             2970   114.939392E+06   -57.476364E+06   -57.475804E+06  -2.64700342E+03    344.82656E+06  -1.09705457E+03
             2971   114.941056E+06   -57.472124E+06   -57.472456E+06      -48.3053055   344.828128E+06       35.8469925
             2972   114.943672E+06     -57.4702E+06     -57.4708E+06      -454.761108   344.827424E+06      -187.326050
             2973   114.941336E+06   -57.471068E+06   -57.472156E+06      -715.259705   344.828192E+06   1.21454700E+03
             2974   114.940608E+06   -57.474768E+06   -57.472432E+06       574.358643   344.828192E+06      -44.7525711
             2975   114.929472E+06   -57.477832E+06   -57.475764E+06  -2.35611499E+03    344.82736E+06       409.856659
             2976    114.94304E+06   -57.470928E+06   -57.471452E+06       156.298859   344.828064E+06       22.4525490
             2977   114.945816E+06   -57.469148E+06   -57.468888E+06      -179.931137   344.827872E+06       191.365128
             2978   114.933256E+06   -57.481464E+06   -57.480512E+06       105.628555    344.82832E+06       56.6706963
             2979   114.938728E+06   -57.475248E+06     -57.4755E+06       71.7967758   344.828384E+06      -252.400742
             2980   114.943488E+06   -57.469988E+06       -57.47E+06       17.5109901   344.827872E+06       22.8342113
             2981     114.9422E+06   -57.471852E+06   -57.472552E+06       115.912476    344.82736E+06      -482.988068
             2982   114.948448E+06   -57.466996E+06   -57.465884E+06  -1.32084229E+03   344.826688E+06      -393.590271
             2983   114.943224E+06   -57.470988E+06   -57.471024E+06       107.018738   344.827936E+06      -15.9880066
             2984   114.951248E+06   -57.469408E+06   -57.466456E+06   1.23339844E+03   344.831008E+06      -143.140640
             2985   114.943608E+06   -57.470348E+06   -57.470608E+06       150.549591   344.827872E+06       59.6009178
             2986   114.943936E+06   -57.469936E+06    -57.46942E+06      -475.880829   344.828032E+06      -260.392944
             2987    114.94624E+06   -57.468716E+06   -57.469804E+06       182.172134   344.827712E+06       39.7792854
             2988   114.946816E+06   -57.467824E+06   -57.467708E+06      -490.699097   344.828064E+06       434.740540
             2989   114.939464E+06   -57.475164E+06   -57.476028E+06       629.576172   344.827744E+06      -610.684875
             2990   114.940776E+06   -57.468948E+06    -57.47034E+06       696.029053   344.827136E+06      -166.281982
             2991   114.914056E+06   -57.497672E+06     -57.4971E+06   1.15937280E+03   344.832704E+06       272.138702
             2992   114.944936E+06   -57.468696E+06   -57.468564E+06       25.3249035   344.827584E+06       98.5185242
             2993   114.945824E+06   -57.468464E+06   -57.468316E+06       47.9260521   344.827584E+06       254.757233
             2994   114.949184E+06    -57.46568E+06   -57.465696E+06       104.888000   344.826976E+06      -302.298950
             2995   114.939256E+06   -57.473548E+06   -57.473856E+06       149.017334    344.82752E+06      -145.547928
             2996   114.943728E+06   -57.470268E+06   -57.470272E+06      -91.3917313   344.827808E+06       182.018250
             2997   114.942816E+06   -57.470988E+06   -57.470976E+06      -12.1251240   344.828032E+06      -201.908752
             2998   114.946824E+06   -57.468344E+06   -57.467652E+06      -963.322815     344.8288E+06      -703.289490
             2999    114.94996E+06    -57.46318E+06    -57.46314E+06  -1.26753943E+03    344.82672E+06       554.120056
             3000   114.943344E+06    -57.47058E+06    -57.47034E+06       243.010361   344.828224E+06       36.1656303
             3001   114.942448E+06    -57.46954E+06   -57.470244E+06       144.043396   344.827488E+06      -169.818695
             3002    114.94624E+06   -57.467516E+06   -57.467948E+06      -463.241455   344.827744E+06       58.1444206
             3003   114.942448E+06   -57.471336E+06   -57.471168E+06       11.7444582    344.82768E+06       39.1470680
             3004    114.94644E+06   -57.467048E+06   -57.467816E+06      -198.865860    344.82688E+06      -336.713257
             3005   114.943568E+06    -57.47016E+06   -57.470248E+06      -90.0469818   344.827936E+06       47.0978622
             3006    114.94252E+06   -57.471024E+06   -57.471164E+06       74.9609909   344.827808E+06       43.8956604
             3007   114.924144E+06   -57.489324E+06   -57.488812E+06   3.40344312E+03   344.830432E+06       369.066559
             3008   114.941336E+06   -57.472196E+06   -57.472024E+06       415.537628   344.828448E+06       424.914673
             3009   114.942928E+06   -57.470792E+06   -57.470744E+06       42.6307716   344.827712E+06       113.966751
             3010   114.941264E+06   -57.472724E+06   -57.472932E+06      -447.482391   344.827936E+06      -393.672943
             3011   114.942512E+06   -57.470536E+06    -57.46968E+06       393.846466   344.828448E+06       89.6393661
             3012   114.942568E+06    -57.47134E+06   -57.471152E+06       74.1704941   344.827744E+06       29.5314617
             3013   114.933128E+06   -57.484332E+06   -57.485188E+06      -360.367981   344.832672E+06      -724.958008
             3014   114.932536E+06    -57.47944E+06   -57.478468E+06   1.61870459E+03   344.829088E+06      -383.085846
             3015   114.941824E+06     -57.4729E+06   -57.472512E+06      -388.431091   344.828512E+06      -399.674774
             3016    114.94312E+06    -57.47058E+06   -57.470212E+06       54.2345924   344.827808E+06      -17.9556618
             3017   114.942328E+06   -57.471496E+06   -57.471576E+06       9.40818024   344.827936E+06      -81.5712585
             3018   114.946248E+06    -57.46776E+06    -57.46736E+06      -260.690460    344.82752E+06      -504.092010
             3019      114.944E+06   -57.469996E+06   -57.469808E+06       114.015823   344.828288E+06       380.591705
             3020   114.941528E+06   -57.472356E+06   -57.472112E+06       164.197800    344.82832E+06      -108.457802
             3021   114.953776E+06   -57.463508E+06   -57.463104E+06  -1.30868811E+03   344.827392E+06      -989.868774
             3022   114.995688E+06   -57.429916E+06   -57.430776E+06   5.66115869E+03   344.825856E+06       367.836639
             3023   114.960576E+06   -57.455588E+06   -57.455652E+06  -1.44295203E+03   344.826528E+06       903.233521
             3024     114.9488E+06   -57.467468E+06   -57.465212E+06  -1.25943994E+03   344.828096E+06  -1.48438696E+03
             3025   114.940568E+06   -57.471896E+06    -57.47394E+06       157.612442   344.824256E+06   1.50817078E+03
             3026   114.937992E+06   -57.473488E+06   -57.476396E+06   1.54642700E+03   344.824832E+06      -566.567444
             3027   114.936576E+06   -57.481244E+06   -57.481056E+06   1.99838599E+03   344.831392E+06      -84.2464905
             3028   114.936464E+06   -57.472872E+06    -57.47228E+06  -1.24462830E+03      344.828E+06   1.25041626E+03
             3029   114.950272E+06   -57.464124E+06   -57.461888E+06       346.370148   344.825376E+06   1.63486853E+03
             3030    114.94476E+06   -57.468188E+06    -57.46814E+06      -147.372223   344.827936E+06      -343.299072
             3031   114.945104E+06    -57.46906E+06    -57.46936E+06      -187.446869   344.828096E+06      -136.606995
             3032   114.934024E+06   -57.475364E+06   -57.474728E+06  -1.09575989E+03   344.828384E+06   1.15572205E+03
             3033   114.941336E+06    -57.47226E+06   -57.473312E+06      -364.155884   344.827584E+06      -14.1072464
             3034     114.9448E+06   -57.470056E+06   -57.469972E+06       64.0212326   344.828288E+06      -37.4450455
             3035   114.941432E+06   -57.471288E+06   -57.471376E+06      -84.7158890   344.827552E+06      -107.977768
             3036      114.945E+06   -57.473024E+06   -57.472036E+06       144.249557   344.827936E+06      -763.786011
             3037   114.947992E+06   -57.466372E+06   -57.464508E+06      -139.553604   344.827136E+06       330.038788
             3038   114.945664E+06   -57.468888E+06   -57.468672E+06       32.7240181   344.827072E+06       119.955467
             3039    114.94332E+06   -57.469912E+06   -57.469216E+06       431.962402    344.82704E+06      -745.572510
             3040   115.021552E+06    -57.39788E+06   -57.395636E+06   2.91151245E+03   344.813504E+06      -552.823486
             3041   114.936144E+06   -57.475356E+06     -57.4754E+06   3.12120288E+03    344.82672E+06       658.765076
             3042     114.9422E+06   -57.472524E+06   -57.472712E+06      -475.922821   344.828032E+06      -241.633652
             3043    114.94624E+06   -57.466852E+06   -57.467908E+06       291.877350   344.827072E+06      -196.218994
             3044    114.94756E+06   -57.463644E+06   -57.464036E+06       329.923431   344.826592E+06      -128.466675
             3045   114.945096E+06     -57.4675E+06   -57.468576E+06       115.599014   344.827392E+06      -178.887650
             3046   114.938008E+06    -57.47516E+06    -57.47682E+06      -962.881592   344.829024E+06      -312.301605
             3047   114.936784E+06     -57.4755E+06   -57.475516E+06       107.452980   344.828064E+06      -15.7398787
             3048   114.935656E+06   -57.476684E+06    -57.47676E+06       73.7072220   344.827904E+06      -9.94193745
             3049   114.943336E+06   -57.468648E+06   -57.467556E+06      -282.829834   344.827776E+06   1.37458411E+03
             3050   114.927728E+06   -57.482084E+06    -57.48194E+06      -323.700958   344.825088E+06      -558.474243
             3051   114.937864E+06   -57.477196E+06   -57.475824E+06      -784.072083   344.828416E+06      -46.0995445
             3052   114.943376E+06   -57.470348E+06   -57.470048E+06      -15.4444027   344.827744E+06       55.9837761
             3053   114.939416E+06   -57.474964E+06   -57.474888E+06      -975.575378   344.829024E+06       500.636810
             3054   114.940184E+06    -57.47002E+06    -57.46862E+06  -2.75908887E+03      344.824E+06       365.886383
             3055   114.968376E+06   -57.456196E+06   -57.455712E+06  -1.45257983E+03   344.828128E+06  -1.69685864E+03
             3056    114.94316E+06   -57.470764E+06   -57.470712E+06       6.01751947   344.827968E+06       71.3779907
             3057   114.944808E+06   -57.468024E+06   -57.467848E+06   1.00796844E+03   344.824224E+06      -600.926453
             3058   114.949728E+06   -57.465504E+06   -57.465604E+06      -147.268906   344.827488E+06       109.564857
             3059   114.949184E+06    -57.46734E+06   -57.468156E+06  -1.12578528E+03   344.826848E+06      -732.576660
             3060    114.94156E+06   -57.471092E+06   -57.471164E+06      -160.155594    344.82752E+06       47.3309975
             3061   114.946288E+06   -57.466716E+06    -57.46782E+06      -11.9975424   344.827936E+06       33.4463425
             3062   114.945008E+06   -57.467756E+06    -57.46806E+06      -491.477448   344.826816E+06      -192.216492
             3063   114.949032E+06   -57.464812E+06   -57.465988E+06       543.537659    344.82784E+06       420.334198
             3064   114.938672E+06   -57.474572E+06   -57.474636E+06  -1.14086230E+03   344.827488E+06       755.591797
             3065   114.941568E+06   -57.472392E+06   -57.472496E+06       8.85938072   344.828288E+06      -61.5753975
             3066   114.943448E+06   -57.470384E+06   -57.470304E+06      -35.0843277    344.82784E+06       1.55305815
             3067   114.938568E+06    -57.47444E+06   -57.474504E+06  -1.13678394E+03   344.828352E+06       77.6762772
             3068   114.952328E+06   -57.459992E+06   -57.459684E+06      -756.130005    344.82768E+06   1.02120929E+03
             3069   114.943088E+06   -57.471432E+06   -57.471248E+06      -661.021790   344.828096E+06      -38.6762314
             3070   114.941968E+06   -57.472616E+06    -57.47208E+06  -1.03838477E+03   344.829184E+06       423.340942
             3071   114.943392E+06   -57.470332E+06   -57.470204E+06      -62.6603012   344.827296E+06       129.922241
             3072   114.942528E+06   -57.471508E+06   -57.471888E+06      -699.434631   344.828416E+06      -379.576141
             3073   114.956352E+06    -57.45348E+06   -57.456356E+06       927.207214   344.825888E+06  -1.02057843E+03
             3074   114.947488E+06   -57.466868E+06   -57.465916E+06      -541.128906   344.829024E+06       767.322083
             3075   114.952728E+06   -57.464244E+06   -57.463596E+06  -1.30547974E+03   344.828224E+06      -449.089722
             3076   114.932112E+06   -57.477596E+06     -57.4772E+06       532.562866     344.8256E+06       82.1497345
             3077   114.950792E+06   -57.464888E+06   -57.461536E+06      -936.886658   344.828128E+06      -837.040100
             3078   114.930696E+06   -57.478928E+06    -57.47886E+06  -2.22575391E+03   344.825216E+06      -229.882248
             3079   114.938008E+06    -57.47484E+06   -57.475444E+06  -1.99080212E+03   344.828448E+06      -648.361023
             3080   114.941184E+06    -57.47264E+06    -57.47312E+06       50.1296463   344.827936E+06      -29.0966835
             3081    114.93984E+06   -57.474084E+06   -57.473568E+06      -379.476135   344.828096E+06      -869.108154
             3082   114.943088E+06   -57.470952E+06   -57.470968E+06       94.8966827   344.827968E+06      -20.5281010
             3083    114.94368E+06   -57.470952E+06   -57.470952E+06      -331.266785   344.828448E+06      -30.1389217
             3084    114.94728E+06   -57.464332E+06   -57.465424E+06      -534.583313   344.822656E+06  -1.22594751E+03
             3085   114.940192E+06   -57.473436E+06   -57.473528E+06      -379.881958    344.82848E+06       83.5981445
             3086   114.939136E+06   -57.473632E+06   -57.473252E+06       26.8363037   344.827488E+06       202.105850
             3087   114.943184E+06   -57.471636E+06   -57.471232E+06       263.867920   344.828672E+06      -184.595535
             3088    114.94156E+06    -57.47058E+06   -57.471868E+06  -1.29315906E+03   344.827776E+06      -694.204773
             3089    114.95884E+06   -57.459012E+06    -57.45798E+06   2.73424902E+03   344.825056E+06       266.914368
             3090    114.94316E+06   -57.470716E+06   -57.470568E+06       14.4057570   344.827712E+06      -10.2559919
             3091   114.941864E+06   -57.472104E+06   -57.472888E+06       221.847961   344.827648E+06       81.3963547
             3092   114.942048E+06   -57.472232E+06   -57.472712E+06      -746.524475   344.827872E+06      -21.5494499
             3093   114.944488E+06   -57.469164E+06     -57.4693E+06      -448.644226   344.827744E+06      -480.889587
             3094    114.94488E+06   -57.468952E+06   -57.469064E+06       225.833588   344.827488E+06      -13.1098051
             3095   114.943016E+06   -57.469044E+06   -57.469932E+06      -373.959229   344.827264E+06      -524.432678
             3096    114.95564E+06   -57.457484E+06    -57.45772E+06   1.04587439E+03   344.825728E+06       234.821030
             3097   114.944408E+06   -57.470348E+06   -57.469936E+06      -112.386436   344.828128E+06      -253.186600
             3098   114.941424E+06   -57.473036E+06    -57.47316E+06      -32.9131851   344.828448E+06      -103.405586
             3099   114.936928E+06   -57.477316E+06    -57.47726E+06      -573.477051    344.82976E+06      -51.2987328
             3100   114.945848E+06   -57.467956E+06   -57.468556E+06       284.578217   344.827904E+06      -189.640076
             3101    114.94296E+06   -57.470904E+06   -57.470988E+06       8.55397415   344.827936E+06       5.27315998
             3102   114.949512E+06     -57.4668E+06   -57.468444E+06       211.561508   344.829024E+06      -120.146317
             3103   114.941336E+06     -57.4723E+06   -57.473056E+06      -452.510742   344.827872E+06      -29.8365898
             3104   114.979712E+06   -57.437356E+06   -57.436496E+06   3.46715039E+03    344.82016E+06       384.618591
             3105    114.94328E+06   -57.466972E+06    -57.46646E+06      -473.049164   344.828096E+06       746.134338
             3106   114.960528E+06   -57.459408E+06   -57.460216E+06       970.719604   344.827744E+06       130.607162
             3107   114.944064E+06   -57.468236E+06   -57.468968E+06  -1.38696350E+03   344.827264E+06      -897.896057
             3108    114.94656E+06   -57.468372E+06   -57.468324E+06       39.3064346    344.82784E+06       86.5634918
             3109   114.943224E+06   -57.470484E+06   -57.470228E+06      -77.3351212   344.828032E+06       22.2930470
             3110   114.948776E+06   -57.468424E+06   -57.468376E+06   1.77108313E+03   344.829824E+06       574.077393
             3111   114.942952E+06   -57.472292E+06   -57.471792E+06      -33.4200592   344.828416E+06      -23.2835331
             3112    114.94164E+06   -57.472412E+06   -57.472244E+06      -224.472214   344.828288E+06       162.563660
             3113   114.934688E+06   -57.474888E+06    -57.47392E+06      -196.819809   344.822496E+06       377.605164
             3114    114.94872E+06   -57.465632E+06   -57.466784E+06      -338.949677    344.82656E+06      -172.495331
             3115   114.930904E+06   -57.480716E+06   -57.480408E+06   2.34327026E+03   344.826176E+06      -93.3617706
             3116   114.954696E+06   -57.461324E+06   -57.464244E+06   1.10482617E+03   344.827328E+06  -1.11596948E+03
             3117    114.93948E+06   -57.474988E+06   -57.473684E+06      -958.771240   344.827264E+06      -462.300171
             3118     114.9448E+06   -57.469748E+06   -57.469808E+06      -309.679626   344.827648E+06      -200.859390
             3119   114.942568E+06   -57.471244E+06   -57.471412E+06      -54.6354599   344.828096E+06      -94.6928024
             3120   114.943224E+06    -57.47086E+06   -57.470728E+06      -53.4509544   344.828064E+06       17.4961720
             3121   114.932944E+06    -57.47836E+06   -57.474896E+06   2.50132202E+03    344.82496E+06      -373.546478
             3122   114.938688E+06    -57.47714E+06   -57.475516E+06       496.912109   344.828192E+06      -67.5029907
             3123   114.942552E+06   -57.471556E+06   -57.471772E+06      -33.2281380   344.827936E+06      -146.722061
             3124   114.942824E+06   -57.471056E+06   -57.471328E+06      -89.3260956   344.827904E+06      -179.548950
             3125   114.942936E+06   -57.471128E+06   -57.470912E+06       119.884720   344.827808E+06      -64.5527496
             3126   114.942944E+06   -57.471076E+06   -57.470928E+06      -120.054726   344.827936E+06       19.9778061
             3127   114.954928E+06   -57.459528E+06   -57.458848E+06   1.61635339E+03   344.824288E+06       277.612762
             3128   114.943536E+06    -57.47056E+06   -57.470604E+06       227.528580   344.827904E+06       41.0685310
             3129   114.942392E+06   -57.470464E+06   -57.470916E+06      -112.978714   344.827392E+06       152.613571
             3130    114.95064E+06   -57.461392E+06   -57.462472E+06  -1.92408118E+03   344.827296E+06       362.151764
             3131   114.946048E+06   -57.468432E+06   -57.468216E+06       51.1693840   344.828032E+06      -158.668945
             3132   114.944544E+06   -57.469648E+06   -57.469472E+06       53.0649261    344.82752E+06       51.6333885
             3133    114.95448E+06    -57.45804E+06   -57.456392E+06   2.91229370E+03   344.826432E+06  -1.03224890E+03
             3134   114.941112E+06     -57.4716E+06    -57.47014E+06      -946.106934    344.82768E+06       595.965515
             3135    114.94204E+06   -57.472336E+06   -57.472336E+06  -889.948547E-03   344.828608E+06   222.362936E-03
             3136   114.942424E+06   -57.471488E+06   -57.471472E+06       99.9420395   344.827968E+06       2.91067982
             3137    114.94236E+06   -57.471432E+06   -57.471584E+06      -83.3927307   344.827456E+06      -188.681717
             3138   114.942144E+06    -57.47154E+06   -57.471668E+06       132.312943   344.827904E+06       23.6838493
             3139   114.949224E+06    -57.46554E+06   -57.465672E+06   2.54946753E+03   344.826432E+06       267.378387
             3140   114.942704E+06   -57.471188E+06   -57.471408E+06      -135.434631   344.828096E+06   400.498480E-03
             3141   114.939272E+06   -57.474208E+06   -57.473584E+06       405.714386   344.828544E+06      -135.632980
             3142   114.943328E+06   -57.470452E+06   -57.470284E+06       21.3463860   344.828064E+06      -45.1605301
             3143   114.941496E+06   -57.471864E+06   -57.471416E+06       18.7811584      344.828E+06      -137.486664
             3144   114.945192E+06   -57.468464E+06   -57.468396E+06      -551.707886   344.827008E+06      -161.296326
             3145    114.94184E+06   -57.471212E+06     -57.4692E+06       349.656921   344.829472E+06       630.865295
             3146    114.87024E+06   -57.531764E+06   -57.528444E+06   1.03033838E+03   344.836352E+06       636.145325
             3147   114.919016E+06   -57.489268E+06   -57.487096E+06       85.7154236   344.827424E+06   1.56112292E+03
             3148   114.943128E+06   -57.470116E+06   -57.469732E+06       117.487221   344.827776E+06      -230.729370
             3149   114.943168E+06   -57.471048E+06   -57.470472E+06       436.069550   344.827744E+06      -259.155670
             3150   114.932152E+06   -57.480572E+06   -57.478436E+06   3.88115601E+03   344.831424E+06       581.644897
             3151   114.943264E+06   -57.470244E+06   -57.470548E+06      -205.017120   344.827296E+06      -118.309723
             3152   114.940312E+06   -57.473512E+06   -57.473928E+06       128.454727   344.828128E+06      -353.605927
             3153    114.94492E+06   -57.470068E+06    -57.46994E+06      -598.800476   344.828032E+06      -323.314789
             3154   114.906176E+06   -57.501708E+06    -57.50106E+06   5.18560498E+03   344.830208E+06       566.639343
             3155   114.945448E+06   -57.469472E+06   -57.469396E+06      -258.717590   344.828032E+06      -172.384247
             3156   114.955952E+06   -57.460992E+06   -57.461768E+06  -1.14222693E+03   344.826976E+06      -386.511292
             3157    114.94344E+06   -57.470336E+06   -57.470384E+06       23.0720978   344.827584E+06      -188.863480
             3158   114.939976E+06   -57.475048E+06     -57.4765E+06       6.02760983    344.82864E+06       465.567383
             3159   114.933784E+06   -57.477928E+06   -57.482392E+06      -577.103455   344.826816E+06      -395.090729
             3160   114.898688E+06   -57.501892E+06   -57.502704E+06   4.72042725E+03   344.824928E+06       685.574951
             3161    114.94204E+06     -57.4719E+06   -57.472116E+06      -20.7395878   344.828064E+06       52.3841286
             3162     114.9412E+06   -57.473188E+06   -57.472936E+06      -428.946838   344.828448E+06      -135.097672
             3163   114.934272E+06   -57.481548E+06   -57.481084E+06      -814.234985   344.829184E+06       390.689545
             3164   114.943808E+06   -57.470724E+06   -57.470076E+06       355.985138   344.828704E+06       75.2162170
             3165   114.939536E+06   -57.475208E+06   -57.474372E+06      -337.744446   344.828192E+06      -192.090118
             3166   114.939968E+06   -57.473244E+06   -57.473212E+06      -408.663055    344.82768E+06       6.45115471
             3167   114.938856E+06   -57.476176E+06   -57.477836E+06       454.824310   344.827584E+06       952.359497
             3168   114.945648E+06    -57.46922E+06    -57.46916E+06       198.307602   344.828288E+06       47.7476044
             3169   114.947544E+06   -57.467652E+06   -57.467796E+06       332.119446    344.82816E+06       155.286667
             3170   114.947136E+06    -57.46838E+06   -57.468984E+06      -698.159180   344.827328E+06      -437.955841
             3171   114.984512E+06     -57.4352E+06   -57.436084E+06      -779.747803   344.823264E+06      -119.248665
             3172   114.931368E+06   -57.477584E+06   -57.475676E+06      -805.181763   344.824672E+06      -256.101196
             3173   114.945504E+06   -57.469596E+06   -57.469552E+06       89.4965744   344.828288E+06       141.195541
             3174   114.945104E+06   -57.473736E+06   -57.471968E+06      -205.502655   344.828736E+06      -165.281021
             3175     114.9426E+06   -57.470348E+06   -57.472344E+06  -1.16122046E+03   344.828128E+06       218.640381
             3176    114.93488E+06     -57.4794E+06   -57.480012E+06      -56.7658348   344.828448E+06   1.04631604E+03
             3177   114.952536E+06    -57.46382E+06    -57.46372E+06   1.24255798E+03   344.828608E+06       102.415192
             3178   114.948984E+06   -57.466808E+06   -57.465252E+06   2.26987695E+03   344.829888E+06       580.513123
             3179    114.91748E+06   -57.491484E+06   -57.489688E+06  -4.09849170E+03   344.829312E+06       510.616272
             3180   114.941792E+06    -57.47216E+06   -57.472136E+06      -38.1701088    344.82752E+06      -351.540833
             3181   114.879552E+06   -57.523564E+06   -57.523496E+06  -3.22672998E+03   344.831456E+06       124.965576
             3182   115.049072E+06   -57.385144E+06    -57.38908E+06   4.42241211E+03    344.81984E+06       871.356689
             3183   114.948888E+06    -57.46768E+06   -57.468176E+06       680.006409   344.829376E+06       440.479980
             3184   114.951176E+06   -57.464248E+06   -57.464352E+06      -217.266891   344.827616E+06      -2.29956079
             3185    114.94332E+06   -57.471284E+06   -57.471252E+06      -60.8723869   344.828032E+06       170.763382
             3186   114.917064E+06    -57.48892E+06   -57.490776E+06      -555.234436   344.826368E+06       77.2613449
             3187   114.931376E+06    -57.47722E+06   -57.476844E+06  -1.23738733E+03   344.824576E+06      -78.3918228
             3188   114.940728E+06   -57.472796E+06   -57.472736E+06      -459.381714      344.828E+06       119.497818
             3189   114.968256E+06   -57.451084E+06   -57.453708E+06   5.43906592E+03   344.824736E+06       182.560303
             3190   114.949848E+06    -57.46798E+06   -57.466848E+06   1.21730664E+03   344.829664E+06       226.969971
             3191   114.940472E+06   -57.473336E+06   -57.471968E+06       170.887177   344.829216E+06      -618.499756
             3192   114.941208E+06   -57.472004E+06   -57.471892E+06       347.664459    344.82768E+06      -35.0578461
             3193   114.921512E+06    -57.49032E+06   -57.490696E+06       511.997131   344.832128E+06      -321.848938
             3194   114.903136E+06   -57.508536E+06   -57.507636E+06   4.37546240E+03   344.833312E+06  -1.94235999E+03
             3195   114.944128E+06   -57.470208E+06   -57.471096E+06      -871.979736    344.82656E+06       391.131012
             3196   114.984264E+06    -57.43406E+06   -57.433964E+06      -456.011047   344.820416E+06      -187.455231
             3197   114.942792E+06   -57.473248E+06   -57.474108E+06   3.09153223E+03     344.8304E+06       197.485489
             3198   114.942384E+06   -57.473168E+06   -57.472016E+06   2.31531128E+03   344.828288E+06       103.670624
             3199   114.996792E+06    -57.42484E+06   -57.425212E+06   2.30729321E+03   344.823392E+06      -80.7482529
             3200    114.95304E+06   -57.460572E+06   -57.462368E+06  -2.13806372E+03   344.827488E+06      -483.915466
             3201    114.94132E+06   -57.472668E+06    -57.47308E+06      -156.274582   344.828448E+06      -230.184021
             3202   114.940424E+06   -57.474008E+06   -57.472396E+06      -197.816101   344.828736E+06       94.4192123
             3203   114.940912E+06    -57.47238E+06   -57.473996E+06      -281.212128   344.827584E+06       173.650070
             3204   114.981912E+06   -57.438504E+06   -57.439388E+06  -2.35670630E+03    344.82576E+06      -232.930939
             3205   114.942256E+06   -57.471788E+06   -57.470512E+06      -289.876526   344.828128E+06       255.370239
             3206   114.946984E+06   -57.468172E+06     -57.4677E+06      -80.1186295   344.828256E+06       153.202240
             3207   114.935728E+06   -57.476764E+06   -57.477088E+06      -166.869415   344.828096E+06      -104.869995
             3208   114.963336E+06   -57.454496E+06   -57.456336E+06  -1.34600427E+03    344.82528E+06       842.532776
             3209   114.939856E+06   -57.473164E+06   -57.472276E+06      -947.176636      344.828E+06      -325.772278
             3210   114.941992E+06   -57.471988E+06   -57.471932E+06      -20.4835529      344.828E+06       42.5559731
             3211   114.942152E+06   -57.464512E+06   -57.464824E+06  -1.75100525E+03   344.823968E+06  -1.30268811E+03
             3212   114.944072E+06   -57.470052E+06    -57.47116E+06       247.871399   344.827584E+06      -287.895111
             3213   115.003848E+06   -57.420972E+06   -57.419556E+06   1.89842639E+03   344.823424E+06       89.9866028
             3214   114.943728E+06   -57.471084E+06   -57.470168E+06      -137.984177   344.828128E+06       433.196594
             3215   114.941944E+06   -57.472604E+06   -57.473188E+06       130.853867    344.82768E+06       348.998108
             3216   114.944128E+06   -57.469992E+06   -57.469596E+06       204.540894   344.827648E+06       184.068939
             3217     114.9142E+06    -57.49234E+06   -57.489796E+06  -3.32457837E+03   344.829632E+06      -511.848724
             3218   114.937664E+06    -57.47512E+06    -57.47518E+06       372.348755   344.827328E+06      -174.590759
             3219   114.947928E+06   -57.467232E+06   -57.467168E+06       297.469910   344.826848E+06      -498.563324
             3220   114.940896E+06   -57.473116E+06   -57.469364E+06   2.01235828E+03   344.830112E+06      -3.42956614
             3221   114.935064E+06   -57.476492E+06   -57.474412E+06   1.17948889E+03   344.827968E+06       92.3384247
             3222   114.949232E+06   -57.471912E+06   -57.472392E+06      -644.387085    344.83008E+06  -2.59653638E+03
             3223   114.941504E+06   -57.471972E+06   -57.470648E+06   1.23486450E+03   344.828448E+06       67.6679916
             3224   114.947152E+06   -57.469688E+06    -57.46812E+06       393.120239   344.828896E+06  -1.52154858E+03
             3225   114.942104E+06   -57.472356E+06   -57.472272E+06       63.4941978   344.828192E+06       152.575592
             3226   114.937408E+06   -57.476176E+06    -57.47498E+06       937.617310   344.829568E+06       43.5357399
             3227   114.944872E+06   -57.468932E+06   -57.469428E+06      -101.296837    344.82784E+06      -340.406189
             3228   114.940736E+06   -57.473076E+06   -57.472956E+06      -265.039398   344.827776E+06      -189.913788
             3229   114.947888E+06   -57.467628E+06   -57.465652E+06   1.29143152E+03   344.828512E+06       578.028687
             3230   114.949816E+06   -57.464532E+06   -57.463536E+06   1.03749585E+03   344.825632E+06      -155.749313
             3231    114.94156E+06   -57.472128E+06    -57.47256E+06      -459.670227   344.828192E+06       214.379395
             3232   114.934784E+06    -57.47712E+06   -57.476924E+06       170.433533    344.82736E+06       81.8433380
             3233   114.929856E+06   -57.477812E+06   -57.478644E+06  -2.91054321E+03   344.822656E+06       521.984985
             3234   114.941696E+06    -57.47164E+06      -57.472E+06       50.5385666    344.82816E+06      -130.474182
             3235      114.944E+06    -57.47068E+06   -57.470756E+06      -468.650787   344.828352E+06       88.5338211
             3236   114.943824E+06   -57.470292E+06   -57.470496E+06       117.182495   344.827968E+06       197.306366
             3237   114.927384E+06   -57.481016E+06    -57.48396E+06   2.57338062E+03   344.828672E+06  -1.11140991E+03
             3238   114.949432E+06    -57.46608E+06   -57.466272E+06       16.1441288   344.827904E+06      -16.6528969
             3239   114.944576E+06   -57.470276E+06    -57.47044E+06      -646.065369   344.827968E+06      -370.000885
             3240   114.947784E+06    -57.46606E+06   -57.466048E+06       196.713943   344.827712E+06   1.70702356E+03
             3241   114.942064E+06   -57.474072E+06   -57.474352E+06  -3.89615479E+03   344.829472E+06      -485.157806
             3242   114.945992E+06     -57.4697E+06    -57.47016E+06      -807.343994   344.827968E+06       290.536072
             3243   114.939352E+06   -57.473776E+06   -57.474344E+06      -18.8567677   344.829792E+06       753.313354
             3244   114.951112E+06   -57.466216E+06   -57.464996E+06      -893.990845   344.829056E+06      -347.248383
             3245    114.94036E+06     -57.4738E+06   -57.473152E+06       185.774063   344.828192E+06       818.743774
             3246   114.945744E+06   -57.469368E+06    -57.46912E+06       418.359375   344.828096E+06      -70.4462814
             3247    114.94056E+06   -57.473744E+06   -57.473508E+06      -464.228729   344.828384E+06      -385.649445
             3248   114.941464E+06   -57.472504E+06   -57.472536E+06       188.176392   344.827872E+06      -271.835358
             3249   114.933816E+06   -57.476636E+06   -57.477008E+06       924.482178   344.826112E+06      -148.567566
             3250   114.945064E+06   -57.468464E+06    -57.46864E+06      -351.690704   344.827936E+06      -73.2941818
             3251   114.929272E+06   -57.481404E+06   -57.481152E+06  -2.36586914E+03   344.827456E+06       36.1856422
             3252   114.941624E+06   -57.471868E+06   -57.471408E+06      -861.295349    344.82784E+06       347.444885
             3253   114.943776E+06   -57.470996E+06   -57.470792E+06       86.7321167   344.828384E+06       128.941925
             3254    114.94248E+06    -57.47128E+06   -57.471056E+06      -611.825439   344.827488E+06      -73.1922226
             3255   114.943216E+06   -57.471304E+06   -57.470312E+06      -986.093262   344.826656E+06  -1.19481543E+03
             3256   114.951296E+06    -57.46716E+06   -57.469884E+06   3.18177148E+03   344.826624E+06  -2.03100781E+03
             3257    114.94324E+06     -57.4712E+06    -57.47104E+06      -371.499420   344.827968E+06       121.810654
             3258   114.932688E+06   -57.478156E+06   -57.477332E+06   1.53817456E+03   344.824864E+06       916.855652
             3259   114.949632E+06   -57.468608E+06   -57.470176E+06       670.801514    344.82816E+06  -1.46388843E+03
             3260   114.947408E+06    -57.47044E+06   -57.472832E+06   1.14253687E+03   344.829056E+06  -1.14202124E+03
             3261     114.9418E+06   -57.471588E+06   -57.471776E+06      -37.6918297   344.827872E+06      -66.5072861
             3262    114.94316E+06    -57.47078E+06   -57.470464E+06      -174.384247      344.828E+06      -151.128128
             3263   114.942856E+06   -57.471032E+06    -57.47108E+06       45.7206841   344.827872E+06      -31.6678028
             3264   114.947928E+06     -57.4675E+06    -57.46712E+06      -69.4366989   344.828096E+06      -227.978485
             3265   114.945952E+06   -57.469028E+06   -57.468888E+06       216.655655    344.82784E+06      -156.432938
             3266    114.94348E+06    -57.47026E+06     -57.4704E+06      -5.97394514    344.82784E+06      -141.811707
             3267    114.94348E+06   -57.471996E+06   -57.471912E+06   1.07090869E+03   344.829536E+06      -60.6085205
             3268    114.92888E+06   -57.484456E+06    -57.48548E+06      -340.189453   344.831616E+06       722.988770
             3269    114.94308E+06     -57.4706E+06   -57.470736E+06       106.247040   344.827648E+06      -75.4202957
             3270   114.941672E+06   -57.472196E+06   -57.472712E+06      -3.22178173   344.827808E+06       5.77309084
             3271    114.94156E+06    -57.47174E+06   -57.471908E+06       91.1447906   344.828096E+06      -186.470642
             3272   114.948992E+06   -57.466632E+06   -57.466996E+06       720.626282   344.828672E+06       177.755310
             3273    114.94596E+06     -57.4682E+06   -57.468796E+06      -30.2520695   344.828128E+06      -132.730591
             3274   114.935976E+06   -57.476616E+06     -57.4768E+06       726.222412   344.828448E+06      -31.7673340
             3275   114.966032E+06   -57.452412E+06    -57.45172E+06  -1.70866003E+03   344.829696E+06  -1.00238904E+03
             3276   114.939848E+06   -57.473864E+06   -57.473336E+06       251.319046   344.828416E+06       188.124985
             3277   114.939472E+06   -57.477236E+06   -57.476316E+06       563.958496   344.828096E+06       78.6578598
             3278    114.95936E+06   -57.456088E+06   -57.456828E+06       339.159821   344.823744E+06      -537.452881
             3279    114.94472E+06    -57.46694E+06   -57.468072E+06      -741.870728   344.826912E+06      -959.569092
             3280   114.942944E+06   -57.471868E+06   -57.471396E+06      -287.999756   344.827904E+06       686.808899
             3281    114.94536E+06   -57.469484E+06   -57.469516E+06       131.324936   344.828384E+06       11.9281349
             3282   114.942624E+06   -57.472468E+06    -57.47198E+06      -78.6253281   344.828096E+06       285.929199
             3283    114.93884E+06   -57.472576E+06   -57.472344E+06      -623.102234    344.82624E+06      -216.017532
             3284   114.941008E+06   -57.474288E+06   -57.474268E+06   1.45667468E+03   344.828512E+06       162.740402
             3285   114.946304E+06      -57.468E+06    -57.46736E+06       351.937469   344.827744E+06       81.4303818
             3286     114.9324E+06   -57.481964E+06   -57.482732E+06  -2.02032190E+03   344.831424E+06       631.662720
             3287   114.941928E+06   -57.470836E+06   -57.470744E+06       103.872139   344.827104E+06      -379.220032
             3288   114.959008E+06   -57.463448E+06   -57.462068E+06  -1.77069019E+03   344.829696E+06      -976.864746
             3289   114.946304E+06   -57.466816E+06    -57.46652E+06   5.41312793E+03   344.826528E+06       79.2369461
             3290   114.942976E+06   -57.471696E+06   -57.471524E+06       58.2117996   344.827872E+06      -73.2708817
             3291   114.940392E+06    -57.47342E+06   -57.474284E+06      -132.578339   344.827648E+06       55.2841454
             3292    114.94156E+06   -57.475012E+06   -57.476668E+06      -485.844635   344.830016E+06       947.990234
             3293   114.944224E+06   -57.470424E+06   -57.470332E+06      -268.682007   344.829024E+06      -160.366669
             3294     114.9428E+06    -57.47112E+06   -57.470936E+06       174.424286   344.828032E+06      -70.6453094
             3295   114.946408E+06   -57.467124E+06   -57.468156E+06       79.0932465   344.827648E+06      -313.434723
             3296   114.942888E+06   -57.471416E+06   -57.471072E+06       78.2100830   344.827968E+06      -2.39566040
             3297   114.945264E+06    -57.46882E+06   -57.469432E+06       740.663086    344.82816E+06      -2.39293027
             3298   114.955936E+06   -57.457144E+06   -57.455024E+06  -1.38259351E+03    344.82272E+06   1.63847717E+03
             3299   114.940984E+06   -57.472364E+06   -57.471216E+06      -922.058350   344.827904E+06       167.625381
             3300    114.94432E+06    -57.47086E+06   -57.469936E+06  -1.12456311E+03   344.827008E+06      -286.253357
             3301    114.94504E+06    -57.46924E+06   -57.470012E+06       279.067200   344.827392E+06       376.296844
             3302   114.940856E+06   -57.473328E+06   -57.474388E+06       697.212341     344.8288E+06       102.688873
             3303    114.94192E+06   -57.471368E+06    -57.47178E+06       680.968079    344.82848E+06      -124.035545
             3304   114.947056E+06    -57.46868E+06   -57.467148E+06      -104.681694   344.828704E+06       366.460144
             3305   114.945816E+06   -57.469708E+06   -57.469812E+06       823.086548   344.829376E+06      -76.1341629
             3306   114.941368E+06   -57.472824E+06   -57.474244E+06       161.256363   344.827904E+06      -353.423981
             3307   114.942816E+06   -57.470384E+06   -57.470476E+06       161.919800   344.827488E+06       369.530975
             3308   114.929104E+06   -57.480976E+06   -57.480444E+06       432.379852   344.827968E+06      -393.763214
             3309   114.943472E+06    -57.47062E+06   -57.470232E+06       14.6693153   344.828192E+06      -140.929474
             3310   114.932976E+06   -57.478944E+06   -57.477392E+06       146.544739    344.83056E+06      -642.311829
             3311   114.944128E+06   -57.469148E+06   -57.468632E+06      -140.567047   344.827648E+06      -353.225494
             3312   114.940744E+06   -57.473196E+06   -57.472584E+06      -267.223236   344.828256E+06       1.77480912
             3313   114.924392E+06   -57.484164E+06   -57.481972E+06       381.879456   344.830112E+06  -1.04080859E+03
             3314    114.94376E+06   -57.472764E+06   -57.471896E+06   1.78608972E+03   344.831264E+06       630.264709
             3315   114.943784E+06    -57.47024E+06   -57.470392E+06       63.0406761   344.827744E+06       65.4229431
             3316   114.937408E+06     -57.4773E+06   -57.476676E+06      -106.316780   344.828064E+06      -556.985901
             3317   114.943336E+06   -57.469936E+06   -57.470232E+06       106.098389    344.82752E+06       112.801849
             3318   114.940032E+06   -57.472948E+06   -57.473056E+06      -257.271576   344.828128E+06       150.269669
             3319   114.884768E+06   -57.520188E+06   -57.518628E+06   7.01771582E+03   344.833344E+06       561.592773
             3320   114.931992E+06   -57.481756E+06   -57.480936E+06  -3.28097925E+03   344.832864E+06       798.380798
             3321    114.94312E+06   -57.470384E+06   -57.470716E+06      -63.5552216   344.827712E+06       26.9827290
             3322   114.944136E+06   -57.469524E+06   -57.468896E+06      -131.824829   344.827648E+06      -235.454575
             3323   114.941288E+06   -57.468252E+06   -57.469024E+06       123.751755   344.825536E+06      -547.690674
             3324   114.870248E+06   -57.529096E+06   -57.524232E+06  -1.04459790E+03   344.834464E+06      -186.488342
             3325   114.944576E+06   -57.469576E+06   -57.469324E+06      -33.5493698   344.827616E+06       57.9565735
             3326   114.942848E+06    -57.47158E+06   -57.471436E+06      -45.8022690    344.82832E+06       182.522293
             3327   114.943552E+06   -57.470196E+06   -57.470404E+06      -389.375092   344.828096E+06       125.522339
             3328   114.943496E+06   -57.470776E+06   -57.470792E+06      -22.1561642   344.828224E+06       11.8815775
             3329   114.893088E+06   -57.512708E+06   -57.514036E+06       250.834457    344.83328E+06       951.104248
             3330   114.944408E+06   -57.469684E+06   -57.469676E+06       173.363007   344.827456E+06       13.0396767
             3331   114.940136E+06   -57.473904E+06   -57.472468E+06      -532.419800    344.82816E+06       161.188400
             3332   114.954408E+06   -57.457592E+06   -57.456628E+06       633.084717   344.826048E+06       355.895599
             3333   114.946264E+06   -57.466676E+06   -57.465876E+06   1.94521069E+03   344.825664E+06      -480.366455
             3334    114.94356E+06   -57.470052E+06   -57.470084E+06       263.975281   344.827648E+06      -28.1853504
             3335   114.960816E+06   -57.457272E+06     -57.4564E+06      -323.475677   344.825632E+06      -636.987183
             3336   114.942408E+06    -57.47148E+06   -57.471328E+06      -58.5206337    344.82832E+06       69.6679153
             3337   114.935104E+06   -57.474592E+06   -57.474816E+06   1.13561951E+03   344.827296E+06       364.710144
             3338   114.943176E+06   -57.470772E+06    -57.47118E+06       252.972931    344.82784E+06       60.5699768
             3339   114.943568E+06   -57.468132E+06   -57.470852E+06       381.242065    344.82752E+06      -135.826675
             3340     114.9414E+06   -57.473328E+06   -57.474428E+06      -25.0943089   344.828224E+06      -50.8537979
             3341   114.941072E+06   -57.473504E+06   -57.473976E+06      -36.1273956   344.827712E+06       334.838806
             3342   114.949328E+06   -57.465144E+06   -57.465144E+06   54.5014739E-03   344.827104E+06      -415.478363
             3343   114.943264E+06    -57.47044E+06   -57.470204E+06       33.6573029   344.827968E+06      -7.40505266
             3344   114.943256E+06     -57.4704E+06   -57.470512E+06       84.8106766   344.828064E+06       18.6673851
             3345    114.94412E+06     -57.4705E+06   -57.470504E+06       83.8837433    344.82768E+06      -104.750793
             3346    114.94228E+06   -57.471704E+06   -57.471896E+06      -102.655197      344.828E+06      -196.197617
             3347   114.948936E+06   -57.465088E+06   -57.464092E+06   1.24529956E+03   344.827392E+06      -288.879425
             3348     114.8544E+06   -57.552076E+06   -57.553028E+06  -7.71566211E+03   344.841664E+06       324.610657
             3349   114.957424E+06   -57.456536E+06   -57.456924E+06      -959.323486   344.825888E+06   1.06466284E+03
             3350   114.940816E+06   -57.472376E+06   -57.473216E+06      -743.769104   344.827712E+06      -349.741089
             3351   114.936896E+06   -57.477424E+06   -57.478984E+06  -1.22548462E+03   344.827168E+06      -357.003601
             3352   114.992392E+06   -57.431908E+06   -57.431632E+06  -4.15875928E+03   344.827552E+06       232.843781
             3353   114.944648E+06   -57.470636E+06   -57.472348E+06       859.173645    344.82688E+06      -16.2489986
             3354   114.941504E+06    -57.47306E+06    -57.47354E+06  -2.85171680E+03     344.8272E+06       103.777229
             3355   114.992072E+06   -57.429736E+06   -57.431056E+06  -4.80797559E+03   344.823328E+06       46.8821487
             3356   114.941032E+06   -57.471484E+06   -57.471332E+06      -669.432251   344.828448E+06       94.3513031
             3357   114.940648E+06   -57.474112E+06    -57.47496E+06  -1.84253967E+03   344.825952E+06       846.841553
             3358     114.9498E+06   -57.465404E+06   -57.464448E+06       987.052795   344.828576E+06       669.974976
             3359   114.942664E+06    -57.47696E+06   -57.475596E+06   1.00625098E+03   344.829376E+06      -855.885986
             3360   114.942488E+06   -57.471616E+06   -57.471688E+06       207.415894    344.82832E+06       51.5358734
             3361   114.972872E+06   -57.447904E+06    -57.44932E+06   1.90338037E+03   344.826784E+06      -264.251282
             3362   114.936152E+06   -57.477632E+06   -57.480088E+06       755.028564     344.8272E+06       763.549927
             3363   114.949216E+06    -57.46488E+06   -57.464468E+06       243.262192   344.827584E+06      -216.428543
             3364    114.94232E+06   -57.471128E+06     -57.4687E+06      -334.518372   344.830048E+06       455.614838
             3365   114.949312E+06   -57.468504E+06   -57.465132E+06  -1.08361743E+03   344.827968E+06  -1.70260352E+03
             3366   114.939576E+06   -57.475332E+06   -57.475844E+06      -368.196167   344.828704E+06       407.350372
             3367   114.957712E+06   -57.458812E+06   -57.460928E+06  -2.21619214E+03   344.828352E+06  -1.48775232E+03
             3368   114.925096E+06   -57.487224E+06   -57.486868E+06   3.06463306E+03   344.830048E+06      -821.515625
             3369   114.938304E+06   -57.478168E+06   -57.477548E+06   3.30171069E+03   344.830368E+06       935.024231
             3370   114.950448E+06   -57.462956E+06   -57.461924E+06      -332.069366    344.82672E+06       351.436035
             3371   114.940264E+06   -57.472672E+06   -57.471972E+06       104.478104     344.8272E+06   1.11807202E+03
             3372   114.948728E+06   -57.465696E+06   -57.464156E+06  -1.02677539E+03    344.82912E+06   1.07388452E+03
             3373   114.941552E+06   -57.474032E+06   -57.474448E+06   2.80748047E+03   344.823648E+06   2.04137170E+03
             3374   114.941872E+06   -57.472068E+06   -57.471976E+06       70.6323166   344.828128E+06       88.1329422
             3375   114.940176E+06   -57.474552E+06   -57.474744E+06       884.497498    344.82816E+06       726.169861
             3376   114.941728E+06    -57.47032E+06   -57.470184E+06  -1.56911646E+03   344.825472E+06       516.417847
             3377   114.945432E+06   -57.469048E+06   -57.468976E+06      -280.173492   344.828576E+06      -677.202209
             3378   114.867936E+06   -57.534384E+06   -57.533596E+06  -8.27946582E+03   344.835168E+06      -479.868103
             3379    114.93592E+06   -57.481784E+06   -57.478428E+06  -4.68063232E+03    344.83008E+06      -930.988770
             3380   114.944088E+06   -57.470036E+06   -57.469884E+06      -360.641022   344.828288E+06      -125.885048
             3381    114.94876E+06   -57.469352E+06   -57.469468E+06       555.323730   344.828704E+06       382.112549
             3382   114.942728E+06    -57.47116E+06   -57.470916E+06      -253.900650   344.827808E+06      -117.064850
             3383   114.944856E+06   -57.469156E+06   -57.472128E+06      -69.8789749   344.826336E+06       813.362122
             3384    114.94236E+06   -57.471024E+06    -57.47132E+06       55.7766304   344.827776E+06       68.7646255
             3385   114.994584E+06   -57.430656E+06   -57.431796E+06   2.90215698E+03   344.827008E+06   1.16032397E+03
             3386   114.942216E+06   -57.472176E+06    -57.47206E+06       361.527985   344.828128E+06      -197.836151
             3387    114.94132E+06   -57.472004E+06   -57.471716E+06      -96.6587601    344.82816E+06      -29.3781948
             3388   114.941112E+06   -57.473636E+06   -57.471936E+06      -240.091980    344.82784E+06      -390.194183
             3389   114.940464E+06   -57.473332E+06   -57.472536E+06      -404.121918   344.828128E+06      -88.2551041
             3390   114.940928E+06   -57.472532E+06   -57.471448E+06      -121.405167   344.829312E+06       255.245895
             3391    114.94444E+06   -57.470388E+06   -57.469996E+06       169.315903   344.828064E+06       59.5248184
             3392   114.938296E+06   -57.472724E+06   -57.473704E+06   1.51276172E+03   344.824224E+06       313.165802
             3393   114.942896E+06   -57.471412E+06    -57.47122E+06      -21.3921509   344.827936E+06      -189.889313
             3394   114.944136E+06   -57.469572E+06   -57.468948E+06       312.786163   344.827712E+06      -421.404022
             3395   114.955648E+06   -57.462992E+06   -57.464184E+06   1.31098083E+03   344.828512E+06       368.773224
             3396   114.939376E+06    -57.47606E+06   -57.477508E+06  -1.48076501E+03   344.829024E+06      -214.197113
             3397   114.960832E+06   -57.457788E+06   -57.457144E+06   2.40129858E+03   344.825312E+06       207.387482
             3398   114.915808E+06   -57.492716E+06   -57.493472E+06   3.63585303E+03   344.829984E+06      -558.673279
             3399   114.935576E+06   -57.479076E+06   -57.480096E+06   1.05532605E+03   344.829184E+06       421.313049
             3400   114.952264E+06   -57.465176E+06   -57.465896E+06       434.247101   344.826464E+06      -189.067108
             3401    114.94384E+06   -57.469864E+06   -57.470268E+06       13.1219292   344.827808E+06      -21.3380146
             3402    114.92216E+06   -57.490548E+06   -57.490296E+06   2.89171509E+03   344.832672E+06      -675.166504
             3403   114.924152E+06   -57.485712E+06   -57.484476E+06   1.50794958E+03   344.829344E+06       803.752441
             3404   114.943472E+06    -57.47056E+06   -57.470768E+06      -308.793823   344.827904E+06      -22.4979668
             3405   114.943816E+06   -57.470104E+06   -57.470264E+06      -177.499237     344.8272E+06       755.850037
             3406   114.964112E+06   -57.456616E+06   -57.456844E+06   5.88815576E+03   344.826976E+06   1.19505139E+03
             3407    114.95588E+06   -57.458484E+06   -57.458124E+06  -1.61352515E+03    344.82624E+06      -174.661987
             3408   114.961392E+06   -57.457736E+06   -57.458504E+06  -4.32780078E+03    344.82624E+06       910.212830
             3409   114.946104E+06     -57.4692E+06   -57.466828E+06  -1.05987329E+03   344.829312E+06      -233.329727
             3410   114.941184E+06   -57.472076E+06    -57.47226E+06      -352.117004   344.827968E+06      -163.119247
             3411   114.962864E+06    -57.45178E+06   -57.454116E+06  -4.67346387E+03   344.819424E+06   1.18259009E+03
             3412     114.9558E+06   -57.460352E+06   -57.460728E+06       339.664948   344.824096E+06       758.234680
             3413   114.940152E+06   -57.475016E+06   -57.474856E+06      -491.469727   344.828224E+06      -412.164825
             3414   115.034928E+06   -57.393944E+06   -57.395164E+06   6.90485449E+03   344.822272E+06      -498.046265
             3415   114.951272E+06   -57.474096E+06   -57.470168E+06  -1.93496033E+03    344.82944E+06      -610.975647
             3416   114.946672E+06    -57.46968E+06   -57.469308E+06   1.45845447E+03   344.829728E+06      -137.960938
             3417   114.948784E+06   -57.466204E+06    -57.46624E+06       551.784973   344.827712E+06      -16.8959427
             3418   114.935272E+06   -57.478528E+06   -57.480036E+06  -1.15255310E+03   344.829312E+06       178.323013
             3419   114.948328E+06   -57.464476E+06   -57.466032E+06  -1.80431824E+03   344.826624E+06      -11.6945972
             3420   114.942536E+06   -57.470564E+06   -57.470912E+06      -544.603699    344.82736E+06       239.752136
             3421   114.947616E+06   -57.466752E+06   -57.465856E+06       941.290955   344.826944E+06       161.948196
             3422   114.944808E+06    -57.46984E+06   -57.470088E+06       112.305855   344.827584E+06       165.549759
             3423   114.947168E+06   -57.467092E+06   -57.467152E+06      -390.900604   344.827456E+06      -44.2261581
             3424    114.93456E+06   -57.476732E+06   -57.478136E+06       149.763290   344.829536E+06       553.523193
             3425   114.943464E+06   -57.469168E+06   -57.469384E+06      -749.417175   344.827264E+06       171.146347
             3426   114.942136E+06   -57.471868E+06    -57.47174E+06      -33.1172028   344.827744E+06       105.428787
             3427   114.949272E+06   -57.464336E+06   -57.464068E+06       200.876099   344.827104E+06       790.630066
             3428   114.919088E+06   -57.496124E+06    -57.49506E+06   3.71109302E+03   344.833664E+06  -1.35099390E+03
             3429   114.946464E+06   -57.468412E+06   -57.468596E+06       885.776917   344.827328E+06      -217.558853
             3430   114.944736E+06   -57.468872E+06   -57.468604E+06       207.017853   344.828096E+06      -978.042542
             3431    114.94284E+06   -57.470796E+06   -57.471084E+06       134.690430   344.827904E+06       55.4553299
             3432   114.939312E+06   -57.473832E+06   -57.473948E+06       168.128418   344.827904E+06      -151.654633
             3433   114.942816E+06   -57.465992E+06   -57.466084E+06      -426.017822   344.823136E+06      -362.040955
             3434   114.941912E+06   -57.471644E+06    -57.47138E+06      -37.7726898   344.827776E+06      -265.652496
             3435   114.941976E+06      -57.472E+06   -57.471608E+06       660.495056   344.828128E+06       316.705658
             3436   114.943888E+06   -57.468048E+06   -57.468816E+06       160.353165   344.826752E+06      -644.845642
             3437   114.941192E+06   -57.473184E+06     -57.4735E+06       958.911987   344.828928E+06      -103.398468
             3438   114.953264E+06   -57.462648E+06    -57.46262E+06       299.402557   344.827392E+06      -73.4060974
             3439   114.975856E+06   -57.448588E+06   -57.449036E+06   6.29508594E+03   344.833152E+06      -516.632385
             3440   114.979608E+06   -57.439172E+06   -57.441852E+06   11.7135068E+03   344.823456E+06   1.39565527E+03
             3441   114.942704E+06   -57.472384E+06   -57.471516E+06      -486.582855    344.82784E+06      -136.218246
             3442   114.941664E+06   -57.472436E+06   -57.472376E+06      -87.6778030   344.828352E+06      -29.4418755
             3443   114.943144E+06   -57.470572E+06    -57.47046E+06      -112.179512    344.82784E+06      -52.0248413
             3444   114.943816E+06   -57.470968E+06   -57.470544E+06       108.662735   344.828096E+06       51.2354507
             3445   114.939456E+06   -57.474364E+06   -57.475172E+06      -313.354706   344.829472E+06      -419.214813
             3446   114.940496E+06   -57.473292E+06   -57.473352E+06       313.047882    344.82816E+06       337.819580
             3447   114.955984E+06   -57.462156E+06    -57.46168E+06      -622.552673   344.830368E+06       287.810883
             3448   114.950752E+06   -57.465364E+06   -57.465296E+06      -61.3487816   344.828832E+06       122.977768
             3449   114.942344E+06   -57.471892E+06    -57.47236E+06       352.320282   344.827648E+06       410.807373
             3450   114.942752E+06   -57.475768E+06    -57.47416E+06      -791.865051   344.828512E+06       160.079681
             3451    114.94476E+06    -57.46892E+06   -57.469568E+06      -111.854820   344.827744E+06       321.691498
             3452   114.944056E+06   -57.470068E+06     -57.4706E+06       74.5988846   344.827872E+06       7.82057858
             3453    114.92968E+06   -57.477872E+06    -57.47856E+06  -4.28188477E+03   344.822944E+06      -34.1618118
             3454     114.9434E+06   -57.470344E+06   -57.470304E+06       472.663147   344.827552E+06   741.869688E-03
             3455   114.940192E+06   -57.472324E+06     -57.4724E+06       288.484100   344.827232E+06      -210.843979
             3456   114.944376E+06    -57.47002E+06    -57.47036E+06       39.1266212   344.827808E+06       293.413483
             3457   114.943384E+06   -57.470392E+06   -57.470716E+06       202.709045   344.827808E+06       141.885574
             3458   114.947568E+06    -57.46878E+06   -57.469888E+06       976.337585    344.82896E+06       247.533463
             3459   114.949248E+06   -57.463728E+06   -57.463548E+06      -668.579346   344.827008E+06  -1.15285901E+03
             3460   114.942584E+06    -57.47118E+06   -57.471264E+06       399.196899    344.82768E+06      -83.3613434
             3461   114.954336E+06   -57.461044E+06   -57.460596E+06   3.40139233E+03   344.827296E+06       612.612732
             3462   114.939968E+06   -57.472036E+06   -57.472888E+06   1.74032043E+03   344.825312E+06       112.970886
             3463   114.940432E+06   -57.472904E+06   -57.472984E+06       450.621857   344.827904E+06       39.4774132
             3464   114.944824E+06    -57.46956E+06   -57.468864E+06      -44.0799065    344.82816E+06      -186.309494
             3465   114.936168E+06   -57.471544E+06   -57.469788E+06  -2.88785596E+03    344.82336E+06       183.014160
             3466   114.939064E+06   -57.473964E+06   -57.473824E+06       140.382309    344.82816E+06      -119.651253
             3467   114.939904E+06   -57.472536E+06   -57.473056E+06      -215.594391   344.827872E+06      -102.381233
             3468   114.948632E+06    -57.46724E+06   -57.468632E+06  -6.03087598E+03   344.826336E+06       670.896729
             3469   114.913328E+06   -57.494488E+06   -57.494784E+06   1.69455237E+03   344.827392E+06      -161.631592
             3470   114.941336E+06   -57.473284E+06   -57.474872E+06      -176.260544   344.828096E+06       84.5619278
             3471    114.95552E+06   -57.465144E+06      -57.465E+06  -1.43566541E+03   344.830624E+06      -575.080750
             3472   114.946912E+06    -57.46786E+06   -57.467964E+06      -593.433716   344.827712E+06      -49.0627098
             3473   114.941912E+06   -57.471832E+06   -57.471752E+06      -704.716370    344.82848E+06      -253.384766
             3474   114.959776E+06   -57.459076E+06   -57.461628E+06       827.203979   344.826336E+06       241.616119
             3475    114.90004E+06   -57.505256E+06   -57.504952E+06  -10.0386885E+03   344.832032E+06  -1.33178235E+03
             3476   114.930488E+06   -57.487936E+06   -57.486276E+06   1.43662732E+03   344.831392E+06      -787.154907
             3477       114.96E+06   -57.462156E+06   -57.461612E+06  -4.87488281E+03     344.8328E+06       326.342316
             3478   114.984568E+06    -57.42764E+06   -57.424172E+06       926.076111   344.819488E+06       172.852921
             3479   114.930736E+06   -57.486488E+06   -57.486708E+06      -827.460938   344.833536E+06       864.524109
             3480   114.941952E+06   -57.472016E+06   -57.472352E+06      -600.516418   344.827424E+06      -430.247375
             3481   114.943056E+06    -57.47104E+06    -57.47116E+06       25.7377605   344.828096E+06      -68.7918091
             3482   114.934752E+06    -57.47902E+06   -57.477664E+06       688.764404    344.82848E+06      -609.024780
             3483   114.941872E+06   -57.472112E+06   -57.472588E+06       347.581146   344.827872E+06       183.346634
             3484   114.943968E+06   -57.468464E+06   -57.467856E+06  -2.63341821E+03   344.826048E+06      -532.344055
             3485   114.942552E+06   -57.470416E+06   -57.470372E+06      -29.6226139   344.827488E+06       251.288452
             3486    114.94352E+06   -57.470236E+06   -57.470956E+06      -77.5911407   344.827904E+06      -361.271057
             3487   114.946224E+06   -57.465292E+06   -57.465316E+06  -1.17442139E+03   344.828736E+06      -389.989746
             3488   114.884752E+06    -57.51384E+06   -57.515568E+06       310.716736   344.829472E+06       777.392517
             3489   114.965704E+06   -57.460132E+06   -57.460504E+06   5.66651611E+03    344.83488E+06       370.772949
             3490   114.921848E+06   -57.489908E+06   -57.489552E+06  -2.42626245E+03    344.83184E+06      -438.661591
             3491   114.942528E+06   -57.472188E+06   -57.472804E+06       992.675659   344.828608E+06       745.893677
             3492   114.906688E+06    -57.50408E+06   -57.504024E+06   1.84790405E+03   344.835232E+06      -637.727173
             3493   114.941784E+06   -57.471892E+06   -57.472108E+06      -395.793427   344.828224E+06      -359.799042
             3494   114.942672E+06     -57.4707E+06   -57.470908E+06      -324.883759    344.82736E+06      -66.9163513
             3495   114.938352E+06   -57.474908E+06   -57.474768E+06      -152.754929   344.827904E+06      -190.426178
             3496   114.948232E+06   -57.466816E+06   -57.466748E+06       394.151062      344.828E+06       173.975449
             3497   114.919664E+06   -57.487068E+06   -57.488272E+06  -1.09434326E+03   344.828928E+06       985.134094
             3498     114.9016E+06   -57.506984E+06    -57.50744E+06  -2.75137598E+03   344.830752E+06       374.753204
             3499   114.931976E+06   -57.477568E+06   -57.478496E+06  -1.42106323E+03   344.824224E+06       543.349609
             3500   114.946168E+06    -57.46868E+06   -57.466128E+06      -561.561035   344.829568E+06       650.267334
             3501   114.949784E+06   -57.462872E+06   -57.463116E+06       27.9838181   344.826144E+06  -1.04912158E+03
             3502   114.894152E+06    -57.51612E+06   -57.517568E+06   1.36172522E+03   344.833632E+06       478.225281
             3503   114.943896E+06   -57.469288E+06   -57.469372E+06       126.447411   344.827808E+06      -500.577240
             3504   114.944488E+06   -57.469912E+06   -57.469432E+06      -499.829254   344.827616E+06       114.288528
             3505   114.942488E+06    -57.47106E+06   -57.470948E+06       51.6658974   344.827744E+06       11.4835730
             3506   114.942856E+06   -57.471304E+06   -57.471184E+06       189.570831   344.828224E+06      -7.43874598
             3507   114.935168E+06   -57.477364E+06   -57.475708E+06      -664.338928   344.830304E+06       429.982086
             3508   114.947672E+06   -57.469944E+06   -57.468828E+06      -181.595322   344.828128E+06      -391.560852
             3509   114.917192E+06     -57.4959E+06   -57.496872E+06   4.28131885E+03    344.83408E+06      -303.229370
             3510     114.9416E+06   -57.471992E+06   -57.472096E+06       26.9142780   344.828224E+06       60.6732597
             3511   114.942584E+06   -57.471212E+06   -57.471148E+06      -53.1073112   344.827744E+06      -15.7968855
             3512     114.9436E+06   -57.469676E+06   -57.469736E+06       237.146606   344.827936E+06      -67.9291153
             3513   114.946888E+06   -57.467472E+06   -57.466564E+06      -541.078125   344.828768E+06      -291.785065
             3514   114.933968E+06   -57.481844E+06   -57.483076E+06  -1.01327582E+03   344.829408E+06      -684.659546
             3515   114.955136E+06     -57.4633E+06   -57.458604E+06      -691.882385   344.829504E+06       334.904419
             3516   114.950584E+06   -57.468244E+06   -57.467988E+06   1.93027051E+03   344.830144E+06  -1.08000586E+03
             3517   114.929048E+06   -57.487664E+06   -57.485684E+06   1.78296777E+03   344.829312E+06   1.29821606E+03
             3518   114.941288E+06    -57.47624E+06    -57.47542E+06   1.91485413E+03    344.82656E+06      -156.401062
             3519   114.960072E+06    -57.45996E+06   -57.457804E+06      -117.629150   344.826784E+06      -539.412048
             3520   114.936944E+06   -57.476104E+06   -57.476508E+06      -309.802246   344.828736E+06       75.9600296
             3521   114.942992E+06   -57.470968E+06   -57.471232E+06       48.2112007   344.827904E+06   96.2951854E-03
             3522   114.932696E+06    -57.48424E+06   -57.481048E+06   2.83471655E+03   344.828928E+06  -1.17951343E+03
             3523   114.941664E+06   -57.472316E+06   -57.472416E+06      -124.714340    344.82768E+06      -214.072693
             3524   114.942936E+06   -57.471244E+06   -57.471276E+06       99.9175339      344.828E+06      -15.0785494
             3525   114.943544E+06   -57.470436E+06    -57.47034E+06       293.680023   344.827808E+06      -73.3830872
             3526   114.944032E+06   -57.470076E+06    -57.47024E+06      -85.1492386   344.827808E+06      -17.1710320
             3527   114.942728E+06   -57.471516E+06   -57.471412E+06       141.201324   344.827968E+06       44.4232483
             3528   114.931912E+06   -57.479672E+06   -57.478276E+06   3.25394897E+03   344.827712E+06       238.551575
             3529   114.942584E+06   -57.471884E+06    -57.47176E+06       210.373779   344.828096E+06      -184.120636
             3530   114.941744E+06   -57.473468E+06   -57.472712E+06       702.410706   344.828256E+06      -49.4296532
             3531   114.950576E+06   -57.462852E+06   -57.462128E+06   2.93886841E+03   344.825312E+06      -505.336456
             3532   114.940288E+06   -57.472572E+06    -57.47262E+06      -64.0251236     344.8272E+06      -16.4787903
             3533   114.943288E+06   -57.470832E+06   -57.470936E+06       102.287933   344.827904E+06      -24.0841808
             3534   114.944536E+06   -57.469172E+06   -57.469288E+06       295.014069   344.827328E+06      -197.480087
             3535   114.977848E+06   -57.436772E+06   -57.436988E+06  -3.39959546E+03   344.819488E+06      -182.501862
             3536   114.917936E+06   -57.499484E+06   -57.501176E+06  -3.13972192E+03   344.836928E+06       984.795715
             3537   114.944448E+06   -57.470064E+06    -57.46774E+06      -26.3937912    344.82816E+06       338.164520
             3538   114.946952E+06   -57.465744E+06   -57.467856E+06       613.345825   344.826016E+06      -998.896667
             3539   114.938864E+06   -57.474316E+06   -57.473964E+06      -50.5843658   344.828352E+06       94.1520844
             3540   114.945272E+06   -57.469084E+06   -57.469124E+06      -86.4687195    344.82736E+06      -21.5074635
             3541   114.942608E+06   -57.471172E+06   -57.470956E+06       80.0652847   344.827904E+06       22.5524960
             3542   114.941528E+06    -57.47206E+06   -57.472028E+06      -51.9614067   344.828128E+06       31.6279774
             3543   114.973352E+06   -57.446776E+06   -57.447808E+06   2.54117334E+03   344.825088E+06      -2.61951804
             3544     114.9794E+06   -57.441956E+06    -57.44344E+06   2.44696265E+03    344.82256E+06   2.10895557E+03
             3545   114.942832E+06   -57.471064E+06   -57.471136E+06       73.7518768   344.827744E+06      -63.8386955
             3546   114.942776E+06   -57.472528E+06   -57.472392E+06       695.276001   344.829152E+06       709.550110
             3547    114.92952E+06   -57.481848E+06    -57.48216E+06      -446.339966    344.82736E+06      -66.8708344
             3548   114.943936E+06    -57.47084E+06   -57.470772E+06       875.944519   344.828384E+06       605.635071
             3549   114.944544E+06   -57.471244E+06   -57.470552E+06   1.31279199E+03   344.826816E+06       186.343277
             3550   114.939928E+06   -57.473704E+06   -57.472512E+06      -772.841614    344.82832E+06      -324.764526
             3551    114.98432E+06    -57.43904E+06   -57.440796E+06  -2.20410791E+03   344.827072E+06   1.06476001E+03
             3552   114.941744E+06   -57.472752E+06   -57.472892E+06      -220.561859    344.82896E+06       85.3275223
             3553   114.942896E+06   -57.467296E+06   -57.468604E+06  -1.19485742E+03   344.828448E+06      -762.095215
             3554   114.947752E+06   -57.466292E+06   -57.466972E+06      -266.697479   344.825792E+06      -565.716187
             3555   114.943904E+06   -57.470288E+06   -57.470644E+06       12.6450882   344.827296E+06      -240.150940
             3556   114.941528E+06   -57.471832E+06   -57.471924E+06      -91.4066010    344.82816E+06       80.6389313
             3557     114.9536E+06   -57.459452E+06   -57.457976E+06  -3.37043115E+03   344.824896E+06       254.742218
             3558   114.978272E+06   -57.441244E+06   -57.442088E+06  -3.68721899E+03    344.82592E+06      -376.726685
             3559   114.941936E+06   -57.472096E+06   -57.471556E+06      -73.8598022   344.828128E+06      -16.0337925
             3560   114.942704E+06     -57.4712E+06   -57.471208E+06       33.4067421   344.827936E+06      -62.1118050
             3561   114.843544E+06   -57.546152E+06    -57.54274E+06   1.06942456E+03   344.828416E+06       173.071457
             3562     114.9424E+06   -57.471568E+06   -57.471704E+06       15.2600222    344.82816E+06      -47.4334526
             3563    114.93224E+06   -57.481144E+06   -57.481676E+06       758.902100   344.831616E+06  -1.08113330E+03
             3564    114.95336E+06   -57.460636E+06   -57.459352E+06   1.11670715E+03   344.829088E+06   1.88683643E+03
             3565   114.987792E+06   -57.432584E+06   -57.434748E+06   1.89041028E+03   344.820384E+06   1.99853552E+03
             3566   114.940608E+06   -57.472008E+06   -57.471176E+06   2.41792065E+03   344.826816E+06       340.984497
             3567   114.938064E+06   -57.477336E+06   -57.476464E+06       15.6829700   344.828448E+06      -20.2755356
             3568    114.92484E+06   -57.482904E+06    -57.48372E+06      -413.082397   344.828576E+06      -172.079666
             3569   114.946752E+06     -57.4663E+06    -57.46644E+06       84.2402573   344.828512E+06       134.341858
             3570     114.9426E+06    -57.47136E+06    -57.47094E+06       75.7931137   344.827968E+06      -117.364159
             3571   114.939272E+06   -57.474132E+06    -57.47438E+06      -342.192505   344.828736E+06       111.072784
             3572    114.95576E+06   -57.459732E+06    -57.46042E+06   1.60637012E+03   344.824384E+06      -652.082764
             3573   114.942336E+06    -57.47216E+06    -57.47218E+06      -44.3200150   344.828064E+06       147.612793
             3574   114.918072E+06     -57.4914E+06   -57.489316E+06  -1.13722754E+03    344.83136E+06       656.754272
             3575   114.951168E+06   -57.463612E+06   -57.462384E+06      -755.445862   344.827264E+06   1.06097559E+03
             3576   114.941664E+06   -57.474616E+06   -57.475308E+06      -272.644165   344.828512E+06      -390.568787
             3577   114.942528E+06   -57.471168E+06    -57.47116E+06       27.3833046      344.828E+06       11.9206448
             3578   114.938576E+06   -57.480496E+06   -57.479356E+06   1.35573291E+03     344.8304E+06  -1.22148279E+03
             3579   114.943928E+06   -57.472444E+06   -57.473036E+06      -552.427612   344.828192E+06      -812.749390
             3580    114.94188E+06   -57.472416E+06   -57.472212E+06       213.701218   344.828288E+06      -212.210052
             3581    114.91884E+06   -57.493536E+06   -57.494452E+06  -1.36021143E+03   344.833248E+06       79.0258179
             3582   114.944384E+06    -57.46936E+06   -57.469296E+06       72.1593323   344.827968E+06       114.664146
             3583    114.93604E+06    -57.47648E+06   -57.476896E+06   1.79532239E+03   344.828704E+06      -195.572998
             3584   114.944936E+06    -57.46936E+06   -57.468696E+06       57.3879471      344.828E+06       183.821182
             3585   114.943864E+06   -57.474452E+06   -57.474324E+06      -99.2753296   344.832384E+06       184.932587
             3586   114.942224E+06   -57.470976E+06    -57.47136E+06      -122.579018   344.828352E+06      -161.883728
             3587   114.946088E+06   -57.468332E+06   -57.468604E+06       795.618225   344.828544E+06       182.116333
             3588   115.030784E+06   -57.399796E+06     -57.4002E+06   2.09091821E+03   344.824096E+06       385.760040
             3589   114.943456E+06     -57.4735E+06   -57.472764E+06       404.817139      344.828E+06      -515.682800
             3590   114.940744E+06   -57.472868E+06   -57.473088E+06      -129.629868      344.828E+06      -40.1102600
             3591   114.940832E+06   -57.472572E+06   -57.472612E+06      -243.599564   344.827552E+06       84.8879547
             3592   114.941488E+06   -57.472176E+06   -57.472028E+06      -54.0965233   344.827968E+06       23.9022865
             3593   114.944184E+06   -57.468948E+06   -57.468296E+06      -156.582947   344.827232E+06       323.459076
             3594   114.942328E+06   -57.470344E+06   -57.470324E+06      -106.514618   344.827744E+06       274.612488
             3595   114.944232E+06   -57.469736E+06   -57.469504E+06       172.953629   344.828064E+06       158.959091
             3596   114.947584E+06   -57.466932E+06   -57.466972E+06      -739.279724   344.827328E+06      -28.1327686
             3597   114.942744E+06   -57.471144E+06   -57.471232E+06      -395.592834    344.82752E+06      -150.670593
             3598    114.95992E+06    -57.45712E+06   -57.457076E+06  -5.34772559E+03    344.82704E+06       199.499710
             3599   114.950888E+06   -57.465532E+06   -57.464844E+06   1.40277332E+03   344.830048E+06       967.661255
             3600   114.957176E+06     -57.4557E+06   -57.454432E+06  -3.20487549E+03   344.823616E+06       199.740692
             3601   114.915376E+06   -57.497516E+06   -57.497548E+06   3.57553638E+03     344.8336E+06      -447.902039
             3602   114.935992E+06   -57.479804E+06   -57.481536E+06   3.11786328E+03    344.82992E+06      -854.341431
             3603   114.941024E+06   -57.472236E+06   -57.472208E+06      -398.095276   344.827488E+06      -57.8158112
             3604   114.940912E+06    -57.47286E+06   -57.472756E+06       198.636978   344.828288E+06      -35.5464439
             3605   114.942392E+06   -57.471312E+06   -57.471096E+06      -172.846329   344.827968E+06       64.2276764
             3606   114.942608E+06    -57.47116E+06   -57.471288E+06      -39.4800377   344.828224E+06      -113.738907
             3607   114.954272E+06   -57.461152E+06   -57.460444E+06  -1.00082471E+03   344.824512E+06      -339.766083
             3608      114.944E+06   -57.469672E+06   -57.468768E+06      -40.6345711   344.827904E+06       86.9760590
             3609   114.943048E+06   -57.470984E+06    -57.47108E+06       240.675034   344.827808E+06      -21.1254177
             3610   114.942136E+06   -57.471756E+06   -57.471516E+06      -178.498566    344.82784E+06       35.2016716
             3611   114.936984E+06   -57.477968E+06   -57.476636E+06       338.652313   344.828992E+06      -416.707672
             3612   114.962416E+06    -57.46038E+06   -57.463216E+06  -3.90344531E+03   344.830592E+06       442.774872
             3613   114.942064E+06   -57.471096E+06   -57.472236E+06       632.275085   344.827008E+06       15.7867756
             3614    114.91552E+06    -57.49756E+06    -57.49742E+06   4.04220874E+03   344.833408E+06      -416.311768
             3615   114.946928E+06   -57.467644E+06   -57.467884E+06      -880.782288   344.827328E+06      -60.8280716
             3616    114.94192E+06   -57.472396E+06   -57.472444E+06      -887.748474   344.829184E+06      -509.235474
             3617   114.941888E+06   -57.471644E+06   -57.471664E+06       157.598831   344.827904E+06      -253.046249
             3618   114.941024E+06    -57.47212E+06   -57.472144E+06      -101.157997   344.827456E+06      -48.8009300
             3619   114.942672E+06   -57.470904E+06   -57.470944E+06       20.0515690    344.82768E+06       24.1538239
             3620   114.942528E+06   -57.471656E+06     -57.4715E+06       192.494217    344.82816E+06      -61.0182877
             3621   114.944392E+06   -57.469336E+06   -57.468788E+06      -44.2578316    344.82784E+06       161.488831
             3622   114.940416E+06    -57.47338E+06    -57.47348E+06      -141.781265   344.828256E+06      -15.6089249
             3623     114.9422E+06   -57.471624E+06   -57.471776E+06       494.184326   344.827776E+06      -79.2307053
             3624   114.940344E+06   -57.473952E+06    -57.47316E+06      -40.2310638   344.828448E+06      -640.638428
             3625    114.94204E+06   -57.471996E+06   -57.471972E+06       27.8996735      344.828E+06      -100.806969
             3626   114.942248E+06   -57.471432E+06   -57.471432E+06       15.2272282   344.827744E+06      -6.79737949
             3627   114.910344E+06   -57.498636E+06   -57.498544E+06   4.64134961E+03   344.830304E+06      -12.4682522
             3628      114.942E+06   -57.471908E+06   -57.471724E+06      -196.103836   344.827808E+06      -76.2368698
             3629   114.942712E+06    -57.47208E+06   -57.473216E+06      -822.277649    344.82784E+06      -695.685791
             3630    114.94332E+06    -57.47072E+06   -57.470636E+06      -159.556564   344.827808E+06       132.512543
             3631   114.942448E+06   -57.471372E+06   -57.471464E+06       490.384491   344.827776E+06      -87.2575836
             3632   114.948216E+06   -57.466064E+06   -57.466068E+06      -725.018738   344.826944E+06      -40.6288414
             3633   114.945072E+06     -57.4678E+06   -57.468652E+06       309.230164    344.82736E+06      -255.442993
             3634     114.9424E+06   -57.471676E+06   -57.471484E+06      -11.4714336   344.828096E+06       39.7803574
             3635    114.93384E+06   -57.482708E+06    -57.48342E+06   1.81750500E+03   344.832416E+06      -187.386108
             3636     114.9428E+06   -57.471472E+06   -57.471188E+06       1.93400204   344.828192E+06       4.78740549
             3637   114.940528E+06   -57.475644E+06    -57.47414E+06      -667.463318   344.828576E+06      -155.672836
             3638    114.94044E+06     -57.4772E+06    -57.47536E+06       920.042908   344.829184E+06      -626.454895
             3639   114.945888E+06   -57.469708E+06   -57.467992E+06       266.033508   344.828672E+06       2.81593490
             3640     114.9436E+06   -57.470784E+06   -57.470884E+06      -447.845428   344.828064E+06      -46.6609192
             3641   114.944624E+06   -57.470068E+06   -57.469472E+06      -872.892517    344.82832E+06      -649.088257
             3642   114.954648E+06   -57.466408E+06    -57.46684E+06      -151.566544    344.83136E+06      -622.780579
             3643    114.94248E+06    -57.47104E+06   -57.471428E+06       195.281372   344.827584E+06       274.584167
             3644   114.943928E+06   -57.470156E+06   -57.470204E+06      -427.515106   344.827712E+06      -46.1656609
             3645   114.921896E+06   -57.486332E+06   -57.484556E+06      -97.6014481   344.830528E+06       431.792084
             3646   114.940752E+06   -57.474892E+06   -57.470376E+06       726.630798   344.827584E+06       373.036621
             3647   114.936712E+06   -57.476724E+06   -57.476068E+06  -1.29728247E+03   344.829216E+06       457.834229
             3648    114.95168E+06   -57.466552E+06    -57.46602E+06       741.512695   344.831264E+06       197.085297
             3649   114.924872E+06   -57.486364E+06   -57.485888E+06  -3.65579443E+03   344.830112E+06       285.808990
             3650    114.93928E+06   -57.474492E+06   -57.475256E+06      -183.130371    344.82832E+06       91.8034897
             3651   114.944696E+06   -57.469468E+06   -57.469424E+06       255.680359   344.827648E+06       190.076538
             3652   114.943168E+06   -57.470668E+06   -57.470648E+06       3.84550238   344.827648E+06       5.28494310
             3653   114.930208E+06   -57.478636E+06   -57.481668E+06   1.79724548E+03   344.829536E+06  -1.06911572E+03
             3654    114.93984E+06    -57.47316E+06   -57.473344E+06      -365.868927   344.826848E+06      -694.764526
             3655   114.944096E+06   -57.469824E+06   -57.469956E+06       340.961609    344.82784E+06       281.118195
             3656   114.942408E+06   -57.471656E+06   -57.471696E+06       202.289215   344.827872E+06       18.8061562
             3657   114.944672E+06   -57.469796E+06   -57.468524E+06      -962.056335   344.826464E+06  -1.14265674E+03
             3658   114.948184E+06   -57.465812E+06    -57.46572E+06      -458.569916   344.826912E+06       91.9647675
             3659   114.940736E+06   -57.473108E+06   -57.472952E+06       419.564423   344.828416E+06      -88.9440536
             3660   114.898512E+06     -57.5018E+06    -57.50278E+06   3.64315942E+03    344.82992E+06   1.97530908E+03
             3661   114.942832E+06   -57.471104E+06   -57.471164E+06      -70.3762131   344.828032E+06      -126.453293
             3662   114.941304E+06   -57.472788E+06   -57.473652E+06       532.495911   344.828256E+06       449.518799
             3663   114.931608E+06    -57.48338E+06    -57.48132E+06  -1.85261707E+03   344.832768E+06   1.25913330E+03
             3664   114.938504E+06   -57.475192E+06   -57.475036E+06       3.42527914   344.828736E+06       253.899200
             3665    114.93744E+06   -57.477796E+06   -57.476936E+06  -1.13845264E+03   344.829824E+06   1.45279529E+03
             3666     114.9514E+06   -57.466788E+06   -57.465156E+06       606.631409    344.82944E+06   1.87571912E+03
             3667   114.942896E+06   -57.471188E+06    -57.47106E+06      -1.97589564   344.827872E+06      -72.5055695
             3668   114.940936E+06   -57.472024E+06   -57.472424E+06       323.492737   344.828032E+06      -305.672424
             3669   114.952056E+06   -57.463004E+06   -57.459516E+06       853.007751   344.825376E+06   1.68489307E+03
             3670   114.953264E+06   -57.461796E+06   -57.461272E+06   1.48344519E+03    344.82912E+06   1.97722839E+03
             3671   114.942968E+06   -57.469652E+06   -57.469908E+06   1.19297388E+03    344.82832E+06       374.818085
             3672   114.941344E+06   -57.472348E+06    -57.47232E+06      -487.354675   344.827904E+06      -44.9647369
             3673   114.945752E+06    -57.46922E+06   -57.469272E+06       307.635681   344.828448E+06      -11.6705770
             3674   114.942184E+06   -57.471784E+06   -57.471628E+06       49.9638176   344.828192E+06      -94.3088608
             3675    114.91444E+06   -57.489264E+06   -57.489468E+06   4.82712549E+03   344.827584E+06   1.37474292E+03
             3676   114.947728E+06   -57.465384E+06   -57.464352E+06      -220.498322   344.828096E+06       86.9176941
             3677   114.942768E+06   -57.471312E+06   -57.469876E+06       7.18627453   344.828384E+06       963.545349
             3678   114.927336E+06   -57.479568E+06   -57.479652E+06  -6.91892676E+03   344.823712E+06      -425.538452
             3679   114.945512E+06   -57.464268E+06   -57.464332E+06       472.240082   344.823552E+06      -360.937378
             3680   114.951232E+06   -57.462632E+06   -57.463496E+06   3.52708081E+03   344.824672E+06       81.2745285
             3681   114.932024E+06   -57.482648E+06   -57.483008E+06      -159.280945   344.828864E+06  -1.05112915E+03
             3682   114.941776E+06   -57.472212E+06   -57.472632E+06      -667.703125   344.827584E+06      -499.622864
             3683   114.949384E+06   -57.465232E+06   -57.465364E+06      -231.414963   344.827424E+06      -566.617188
             3684    114.94456E+06   -57.469708E+06   -57.472044E+06      -29.0290070   344.827936E+06      -661.252747
             3685    114.90508E+06   -57.503708E+06   -57.502424E+06   3.93238574E+03   344.829664E+06       110.836105
             3686    114.94756E+06   -57.464944E+06   -57.464788E+06       93.2099075   344.829024E+06  -1.26343542E+03
             3687   114.932352E+06    -57.47824E+06   -57.478332E+06  -1.48971021E+03   344.828672E+06      -621.995422
             3688   114.942984E+06   -57.470652E+06   -57.471056E+06       26.7037048   344.827552E+06       328.949890
             3689    114.94248E+06   -57.471312E+06   -57.471468E+06  -864.794612E-03   344.827808E+06       20.6892185
             3690   114.950272E+06   -57.462824E+06   -57.462652E+06       583.765137    344.82496E+06      -63.5103531
             3691   114.943704E+06   -57.469788E+06   -57.470412E+06      -13.9786415   344.828032E+06      -507.967865
             3692   114.952608E+06   -57.463416E+06   -57.464828E+06      -633.354675   344.828128E+06   1.54464136E+03
             3693    114.94192E+06   -57.475864E+06   -57.474592E+06  -1.38788977E+03   344.830464E+06      -91.4620514
             3694   114.936888E+06   -57.476736E+06   -57.477152E+06   1.00571387E+03   344.828384E+06   1.29940698E+03
             3695   114.926872E+06   -57.486008E+06   -57.484532E+06   2.84649341E+03   344.832768E+06       450.475586
             3696    114.94204E+06   -57.471996E+06   -57.471832E+06       98.1895523   344.828064E+06      -78.6941299
             3697     114.9374E+06   -57.475208E+06   -57.475232E+06   1.16725610E+03   344.827008E+06      -83.6170197
             3698   114.942776E+06   -57.471432E+06   -57.471188E+06       70.8600998   344.828224E+06      -173.631592
             3699   114.941336E+06   -57.472924E+06   -57.473308E+06       80.8351059   344.828192E+06      -192.193298
             3700   114.943032E+06   -57.471468E+06   -57.471516E+06      -230.903214   344.827936E+06       124.303062
             3701   114.944496E+06   -57.469328E+06   -57.469376E+06      -827.012512   344.827264E+06      -42.8450356
             3702   114.940808E+06   -57.472784E+06     -57.4725E+06      -155.460480   344.828256E+06      -125.746193
             3703   114.942128E+06   -57.471816E+06   -57.471904E+06       246.946274   344.828192E+06       114.364700
             3704     114.9482E+06   -57.470288E+06   -57.471948E+06   1.47420056E+03   344.831328E+06       181.336609
             3705   114.942408E+06   -57.471488E+06    -57.47214E+06       122.718674   344.827552E+06       131.574341
             3706   114.949176E+06   -57.472072E+06   -57.473668E+06      -761.846924   344.832064E+06  -1.39596521E+03
             3707   114.940656E+06    -57.47322E+06   -57.473044E+06       259.358246    344.82832E+06      -43.6668167
             3708   114.943944E+06   -57.470012E+06    -57.46996E+06      -98.8473129    344.82752E+06       106.960655
             3709     114.9302E+06   -57.481364E+06   -57.479896E+06       332.252930   344.830912E+06      -705.487671
             3710   114.940152E+06   -57.473444E+06   -57.473588E+06       125.798546   344.828192E+06      -105.293556
             3711   114.943592E+06   -57.470408E+06   -57.470548E+06       51.4071922   344.827808E+06      -139.614304
             3712    114.93992E+06   -57.472424E+06   -57.473944E+06  -4.03713916E+03   344.825344E+06      -91.1543350
             3713   114.948736E+06   -57.466448E+06   -57.465364E+06      -661.897095   344.828864E+06      -587.352661
             3714   114.940056E+06   -57.473264E+06   -57.472716E+06      -306.500916    344.82832E+06      -262.493683
             3715   114.940384E+06   -57.473424E+06   -57.473612E+06      -200.068176    344.82848E+06       165.593674
             3716   114.846816E+06   -57.543548E+06   -57.540172E+06   1.74735779E+03   344.828256E+06       45.4881325
             3717    114.91044E+06   -57.489456E+06   -57.486064E+06  -2.86695728E+03   344.823456E+06      -61.5877762
             3718   114.942128E+06   -57.472044E+06   -57.471608E+06       64.1714859    344.82768E+06      -61.0946617
             3719   114.914928E+06   -57.496476E+06   -57.496824E+06       285.040527   344.832256E+06      -395.300781
             3720    114.94184E+06   -57.471692E+06   -57.471868E+06       37.1704025    344.82784E+06       49.7912369
             3721   114.943352E+06    -57.47162E+06   -57.470456E+06   1.40028430E+03   344.828224E+06  -1.11487695E+03
             3722   114.991568E+06   -57.430684E+06   -57.430876E+06   6.00430664E+03   344.825408E+06      -405.670715
             3723   114.942632E+06   -57.471424E+06   -57.471636E+06      -255.331146    344.82816E+06      -13.0091887
             3724   114.943128E+06   -57.470908E+06   -57.470944E+06      -226.713608   344.827776E+06      -31.8384285
             3725    114.91976E+06   -57.489888E+06   -57.489624E+06  -6.73343555E+03   344.828672E+06       250.975784
             3726    114.93968E+06   -57.473732E+06   -57.473184E+06      -448.368805   344.828256E+06       267.574982
             3727      114.946E+06    -57.46862E+06   -57.466388E+06  -1.07271814E+03   344.828992E+06       889.339050
             3728   114.943192E+06   -57.471228E+06   -57.470816E+06       480.901031   344.827872E+06      -95.7821503
             3729     114.9416E+06   -57.472476E+06   -57.472504E+06       237.177078   344.828256E+06       90.6337585
             3730   114.944192E+06   -57.469896E+06     -57.4697E+06       667.158203   344.828032E+06      -79.0102081
             3731   114.947768E+06   -57.466008E+06    -57.46696E+06      -142.317307   344.825312E+06       133.415283
             3732     114.9412E+06    -57.47234E+06   -57.472468E+06      -115.627083   344.828192E+06       266.379333
             3733   114.941416E+06   -57.473968E+06   -57.472608E+06       357.302673   344.828608E+06      -56.3752213
             3734   114.956552E+06   -57.458604E+06     -57.4591E+06   4.29581982E+03   344.825984E+06       234.628448
             3735   114.945792E+06   -57.467788E+06   -57.467328E+06      -208.089645   344.828192E+06       400.991943
             3736   114.943184E+06    -57.47094E+06     -57.4708E+06       309.995880   344.828224E+06      -173.379547
             3737   114.940632E+06   -57.473012E+06   -57.473068E+06      -64.9895477   344.828256E+06       195.657043
             3738   114.967032E+06   -57.452192E+06   -57.452352E+06      -304.130096      344.828E+06       80.5542221
             3739   114.908632E+06   -57.498772E+06   -57.497112E+06   2.90231958E+03   344.828032E+06       39.4244843
             3740   115.002112E+06   -57.425052E+06   -57.426864E+06  -6.36418848E+03   344.829344E+06      -150.591843
             3741    114.94376E+06   -57.469908E+06   -57.472008E+06   1.03115222E+03   344.829056E+06       257.754547
             3742   114.940176E+06   -57.473044E+06   -57.473144E+06      -754.668640   344.827808E+06      -2.56106281
             3743   114.967128E+06    -57.45462E+06   -57.455336E+06   2.93407935E+03   344.829824E+06      -270.678497
             3744    114.95244E+06   -57.466452E+06   -57.466724E+06  -1.19515735E+03   344.829312E+06      -331.988617
             3745   114.941408E+06   -57.472352E+06   -57.471544E+06       67.7871933   344.827904E+06      -181.187653
             3746   114.938312E+06   -57.474568E+06   -57.474536E+06      -151.493637   344.827616E+06      -72.2940292
             3747    114.94332E+06   -57.470668E+06   -57.470768E+06      -336.609619   344.827904E+06       51.6872368
             3748   114.943544E+06     -57.4705E+06   -57.470496E+06      -47.7123985   344.827872E+06      -67.2319412
             3749   114.942808E+06   -57.471308E+06   -57.471488E+06      -568.107056   344.827936E+06      -11.1084137
             3750    114.94128E+06     -57.4725E+06    -57.47108E+06  -1.66325610E+03   344.825344E+06       497.820496
             3751   114.941888E+06   -57.471756E+06   -57.471864E+06      -579.971924    344.82768E+06      -18.5086575
             3752   114.943632E+06   -57.470332E+06   -57.470492E+06      -103.488403   344.827808E+06       32.4137802
             3753   114.945416E+06   -57.467536E+06   -57.466404E+06       609.672913     344.8272E+06      -297.268463
             3754   114.945224E+06     -57.4697E+06   -57.469896E+06       451.422272   344.828352E+06      -36.9429741
             3755   114.953856E+06   -57.460776E+06   -57.464332E+06  -4.51269775E+03    344.82784E+06  -1.04291235E+03
             3756   114.948496E+06   -57.468972E+06   -57.467936E+06       323.658966     344.8296E+06      -817.721619
             3757   114.946056E+06   -57.468252E+06   -57.468176E+06      -842.232666   344.826912E+06      -144.055054
             3758   114.933712E+06      -57.479E+06   -57.479204E+06      -129.175003    344.82864E+06      -38.6744576
             3759   114.943184E+06   -57.471588E+06   -57.471072E+06      -709.273315   344.827488E+06      -397.850525
             3760   114.942776E+06    -57.47006E+06   -57.470248E+06      -32.2576561   344.827744E+06      -137.607803
             3761   114.942704E+06   -57.470212E+06   -57.468896E+06      -361.217773    344.82816E+06      -194.684708
             3762   114.960688E+06     -57.4613E+06   -57.460176E+06      -661.255615   344.828992E+06       494.503998
             3763    114.94076E+06   -57.473164E+06   -57.473244E+06       427.339722    344.82848E+06      -14.1491528
             3764   114.944576E+06    -57.47006E+06   -57.470052E+06       443.416595   344.828256E+06      -5.76345158
             3765   114.939216E+06   -57.474804E+06   -57.474772E+06   1.02122388E+03   344.828832E+06       6.89055777
             3766   114.946928E+06   -57.466876E+06   -57.467688E+06       349.975769   344.827264E+06       698.745361
             3767   114.940416E+06   -57.473308E+06      -57.473E+06      -991.837585    344.82672E+06       576.082764
             3768      114.941E+06    -57.47342E+06   -57.473348E+06       548.712524   344.828768E+06      -62.8118286
             3769   114.944496E+06   -57.470448E+06   -57.470028E+06       169.318085   344.826848E+06       84.3458557
             3770   114.941504E+06   -57.472268E+06   -57.472228E+06      -369.003479   344.827936E+06       67.7210464
             3771   114.945984E+06   -57.464964E+06   -57.464788E+06      -76.6910172   344.827488E+06       457.727112
             3772   114.940528E+06   -57.473084E+06   -57.472984E+06      -93.5235977   344.828096E+06      -126.770416
             3773   114.943368E+06   -57.470648E+06   -57.470612E+06      -268.030457   344.827776E+06       60.6354370
             3774   114.942704E+06   -57.471416E+06    -57.47136E+06      -145.757477   344.828192E+06       117.705162
             3775   114.940808E+06   -57.472316E+06   -57.472716E+06       170.096252    344.82816E+06       121.669289
             3776   114.943856E+06   -57.470684E+06   -57.470188E+06       55.7876053   344.828288E+06      -238.479172
             3777   114.943144E+06   -57.470952E+06   -57.470612E+06       56.9142227   344.828096E+06       254.535767
             3778   114.941584E+06   -57.472536E+06   -57.473044E+06      -88.1570587   344.828288E+06      -482.992371
             3779   114.941328E+06     -57.4728E+06   -57.472496E+06      -84.7743759   344.827904E+06      -75.2408600
             3780    114.94104E+06   -57.472672E+06   -57.472572E+06      -94.2016449   344.828096E+06      -126.564636
             3781   114.943472E+06   -57.470704E+06   -57.470552E+06       78.9813995   344.828064E+06      -89.5537872
             3782   114.942464E+06   -57.471584E+06   -57.471404E+06       5.80116463   344.828288E+06      -110.884323
             3783   114.942136E+06   -57.471832E+06   -57.471896E+06       126.317108   344.828128E+06       92.7464218
             3784   114.946184E+06   -57.468316E+06   -57.468216E+06       181.526276   344.827712E+06      -110.044189
             3785    114.94284E+06    -57.47102E+06   -57.471064E+06      -96.6339264   344.827936E+06       56.8186378
             3786   114.945208E+06   -57.469528E+06   -57.469656E+06       451.022156   344.828224E+06      -51.6209335
             3787   114.942024E+06   -57.471732E+06   -57.471776E+06       90.7509842      344.828E+06       22.9550533
             3788   114.942496E+06   -57.471704E+06     -57.4717E+06      -43.0888405   344.828032E+06      -37.8868942
             3789   114.946944E+06   -57.466476E+06   -57.464476E+06      -201.386520     344.8288E+06       683.699036
             3790   114.948456E+06      -57.467E+06   -57.466972E+06       174.762741   344.828192E+06      -46.3258438
             3791   114.912792E+06   -57.497496E+06     -57.4967E+06      -840.389954   344.832256E+06       338.192200
             3792   114.942984E+06     -57.4711E+06   -57.471024E+06      -220.773499   344.827968E+06      -6.23970985
             3793   114.942048E+06   -57.471768E+06     -57.4718E+06       84.5886154   344.828032E+06   351.834059E-03
             3794   114.943592E+06   -57.470048E+06     -57.4695E+06      -230.692505   344.828352E+06       159.903641
             3795   114.942552E+06   -57.471576E+06   -57.471692E+06      -108.499146   344.828288E+06      -47.9591522
             3796   114.941856E+06   -57.471892E+06   -57.471936E+06       86.6938858   344.828032E+06       23.1710739
             3797   114.942648E+06    -57.47138E+06   -57.471228E+06       23.8599911   344.827904E+06      -111.942108
             3798   114.941864E+06   -57.471896E+06   -57.471732E+06      -261.942078   344.827936E+06       49.2997780
             3799   114.942112E+06    -57.47156E+06   -57.470712E+06       162.201233    344.82752E+06       40.1821556
             3800   114.942632E+06    -57.47074E+06   -57.471036E+06       149.352737   344.827328E+06      -261.610474
             3801    114.93324E+06   -57.479228E+06   -57.479348E+06   1.49474927E+03     344.8296E+06      -581.217712
             3802    114.88964E+06   -57.515572E+06    -57.51502E+06  -6.86914014E+03    344.83168E+06       804.709839
             3803   114.943256E+06    -57.47064E+06   -57.470704E+06       115.884789   344.828032E+06       74.0187454
             3804   114.939816E+06   -57.471512E+06    -57.47114E+06       227.619446   344.826464E+06      -268.083832
             3805   114.944136E+06   -57.469324E+06   -57.469564E+06       193.596069   344.826496E+06  -1.74262671E+03
             3806   114.942168E+06    -57.46808E+06   -57.469724E+06       611.299377   344.828576E+06      -161.231750
             3807   114.949848E+06    -57.46732E+06   -57.464448E+06      -604.305237   344.826528E+06      -72.8722305
             3808   114.949968E+06   -57.465016E+06   -57.464424E+06  -1.61300244E+03   344.826848E+06       192.111572
             3809   114.953016E+06    -57.46318E+06    -57.46424E+06   1.05574011E+03    344.82608E+06  -1.55259509E+03
             3810   114.941192E+06   -57.471408E+06    -57.47034E+06   2.25098120E+03   344.825952E+06      -51.5967255
             3811    114.94804E+06   -57.465688E+06   -57.465672E+06       105.594490   344.826848E+06      -521.363037
             3812   114.981464E+06    -57.44214E+06   -57.441464E+06   7.28858252E+03   344.829856E+06       755.767761
             3813   114.933376E+06   -57.479124E+06   -57.480336E+06   3.99494385E+03   344.827488E+06      -884.595642
             3814   114.942776E+06   -57.471144E+06   -57.471392E+06       196.703369   344.827872E+06      -15.2421799
             3815   114.940064E+06   -57.473384E+06   -57.473264E+06      -200.108444   344.827776E+06      -407.279327
             3816   114.949472E+06   -57.458456E+06   -57.460596E+06   3.16662329E+03   344.825152E+06       170.744370
             3817   114.945432E+06   -57.468708E+06   -57.467144E+06       532.736328   344.827872E+06       420.075317
             3818    114.94136E+06   -57.472836E+06   -57.472788E+06           -385.5   344.828032E+06      -196.194382
             3819   114.909464E+06   -57.493252E+06    -57.49222E+06   1.24985461E+03   344.825088E+06      -705.321167
             3820   114.944688E+06   -57.469548E+06   -57.467892E+06   2.58961230E+03   344.825536E+06      -388.681885
             3821    114.94548E+06   -57.468816E+06   -57.469124E+06      -607.629272   344.827744E+06      -160.242126
             3822    114.94332E+06   -57.470272E+06    -57.46978E+06      -15.1403885   344.827872E+06       195.183319
             3823    114.94672E+06   -57.468404E+06   -57.468012E+06      -143.813324   344.828096E+06      -217.667038
             3824    114.95948E+06   -57.456472E+06   -57.457044E+06  -2.94065771E+03   344.823328E+06      -898.371094
             3825   114.948464E+06   -57.466156E+06   -57.467896E+06       848.386719   344.828416E+06      -619.373413
             3826   114.943704E+06    -57.47036E+06   -57.470332E+06       760.715576   344.827808E+06       38.1305504
             3827      114.948E+06   -57.469496E+06   -57.469608E+06      -582.431763   344.828448E+06      -778.046997
             3828   114.945752E+06   -57.469112E+06   -57.469104E+06       473.339966   344.828224E+06      -111.855186
             3829    114.94348E+06   -57.471232E+06   -57.472496E+06      -246.010315   344.828192E+06      -956.369141
             3830   114.954808E+06   -57.464804E+06   -57.464944E+06      -407.002197   344.831264E+06       160.785614
             3831    114.94944E+06   -57.463916E+06   -57.463944E+06   2.24085034E+03   344.823936E+06      -607.987061
             3832    114.94744E+06   -57.467444E+06   -57.467312E+06      -74.1247864   344.827328E+06      -203.463074
             3833   114.945824E+06     -57.4687E+06   -57.468564E+06      -74.0854340   344.827328E+06      -201.039352
             3834   114.931968E+06   -57.479932E+06   -57.479024E+06   2.02876379E+03    344.82768E+06      -257.079742
             3835   114.918496E+06    -57.48362E+06   -57.485936E+06   3.97528638E+03    344.82624E+06       139.998596
             3836    114.94208E+06   -57.472072E+06   -57.472064E+06       244.000656   344.828288E+06      -119.388725
             3837   114.928288E+06   -57.478444E+06   -57.477904E+06  -2.06383374E+03   344.826336E+06      -85.1865311
             3838   114.936504E+06    -57.47466E+06   -57.476456E+06      -739.370605   344.827392E+06       78.6937943
             3839   114.945632E+06   -57.469476E+06   -57.469208E+06       398.186676   344.828096E+06      -74.3094940
             3840   114.942056E+06   -57.471192E+06   -57.471508E+06       42.2623482   344.828032E+06      -154.782806
             3841   114.939872E+06   -57.475152E+06   -57.476348E+06      -629.679504   344.828992E+06       229.012299
             3842   114.950384E+06   -57.464268E+06   -57.464596E+06   1.96117603E+03   344.824704E+06       162.897858
             3843   114.900016E+06   -57.505292E+06   -57.501668E+06   3.25528638E+03    344.83264E+06       669.042114
             3844   114.975208E+06   -57.446028E+06   -57.443792E+06       473.150116    344.82768E+06      -361.131561
             3845   114.943272E+06   -57.470276E+06   -57.470152E+06       170.821014   344.827744E+06      -34.6474457
             3846   114.941176E+06   -57.472592E+06   -57.472788E+06      -497.302185   344.827392E+06      -15.6762009
             3847    114.94024E+06   -57.473652E+06   -57.473804E+06       84.3425522   344.828448E+06       150.921432
             3848   115.039792E+06   -57.396708E+06   -57.395504E+06  -5.07452734E+03   344.822912E+06       99.5568542
             3849   114.933584E+06    -57.48038E+06    -57.47886E+06  -4.26427734E+03   344.824608E+06       821.876160
             3850   114.943592E+06   -57.470696E+06   -57.471092E+06       373.207062   344.829472E+06      -311.289124
             3851    114.94044E+06   -57.472624E+06   -57.471864E+06      -511.215332    344.82816E+06      -336.037109
             3852   114.942664E+06   -57.470944E+06   -57.470936E+06      -20.7446537   344.827808E+06      -42.2509155
             3853   114.943192E+06   -57.470576E+06   -57.470456E+06       485.988678    344.82784E+06      -212.026901
             3854   114.936496E+06   -57.476072E+06   -57.476448E+06  -1.15234265E+03    344.82864E+06       101.718170
             3855   114.939784E+06      -57.476E+06   -57.474392E+06      -464.163635     344.8264E+06      -784.650085
             3856    114.87312E+06   -57.527904E+06   -57.527616E+06  -1.87562207E+03   344.829312E+06      -932.928955
             3857   114.934504E+06   -57.477664E+06   -57.477816E+06   1.15172241E+03   344.827872E+06       146.927597
             3858    114.94252E+06   -57.471512E+06     -57.4715E+06       111.105598      344.828E+06       99.5799484
             3859     114.9398E+06   -57.473724E+06    -57.47382E+06      -248.451218   344.828192E+06      -40.7646217
             3860   114.945736E+06   -57.464344E+06   -57.467644E+06   1.43100330E+03   344.825312E+06       707.722046
             3861   114.941976E+06   -57.471808E+06   -57.472084E+06      -32.6131248   344.827904E+06      -16.6109314
             3862   114.915872E+06   -57.494628E+06   -57.494632E+06   3.44748047E+03   344.828448E+06       347.467651
             3863    114.94124E+06   -57.471592E+06   -57.471716E+06  -2.18177832E+03   344.827392E+06       428.730011
             3864   114.943504E+06   -57.470548E+06   -57.470084E+06       369.375702   344.828064E+06      -8.21975422
             3865   114.936088E+06   -57.478084E+06   -57.478344E+06       771.635864   344.830912E+06      -237.110062
             3866    114.91644E+06   -57.489612E+06   -57.491336E+06      -197.116898   344.823936E+06       932.693359
             3867     114.9436E+06   -57.470592E+06   -57.470596E+06       95.9759674    344.82752E+06      -152.778198
             3868   114.945824E+06   -57.467988E+06   -57.467388E+06       785.694214    344.82448E+06       417.615326
             3869   114.944256E+06    -57.46974E+06    -57.46966E+06      -19.2111340   344.827776E+06       14.9796124
             3870   114.941616E+06   -57.472364E+06   -57.472464E+06       521.475769   344.827936E+06      -47.2886963
             3871   114.942632E+06   -57.471588E+06   -57.471576E+06       16.3131504   344.828416E+06       103.892960
             3872    114.94288E+06   -57.471136E+06   -57.470736E+06       21.6706676   344.828032E+06       59.8850136
             3873   114.942992E+06   -57.471648E+06   -57.472312E+06   5.52752686E+03   344.830144E+06      -608.350037
             3874   114.942232E+06   -57.471756E+06   -57.471476E+06       274.591095   344.827904E+06      -89.8876419
             3875   114.941384E+06   -57.475628E+06   -57.476036E+06      -56.5910873   344.828384E+06       36.0250549
             3876   114.916976E+06   -57.491796E+06    -57.49254E+06   3.65166748E+03   344.829952E+06      -541.747498
             3877   114.942448E+06   -57.471376E+06   -57.471484E+06       38.6733665      344.828E+06      -47.1809921
             3878   114.943408E+06    -57.47262E+06   -57.470892E+06   1.19970776E+03   344.829184E+06   1.29048633E+03
             3879   114.993064E+06   -57.428416E+06   -57.431024E+06   9.13132715E+03   344.820128E+06       931.470825
             3880    114.95468E+06   -57.457388E+06   -57.458016E+06  -2.17381177E+03    344.82464E+06       211.480011
             3881   114.956256E+06    -57.46306E+06   -57.461832E+06       617.405945   344.827392E+06       215.021896
             3882   114.943808E+06   -57.471112E+06   -57.469796E+06      -273.186249   344.827456E+06       947.413330
             3883   114.942616E+06   -57.470976E+06    -57.47124E+06      -516.671997   344.828096E+06      -244.614655
             3884    114.96928E+06   -57.445756E+06     -57.4466E+06  -2.34988940E+03   344.823648E+06       472.258728
             3885    114.93584E+06    -57.46942E+06   -57.469156E+06   1.68057983E+03   344.826944E+06       884.372803
             3886   114.942768E+06   -57.470648E+06    -57.47088E+06      -29.0531101    344.82784E+06       133.916550
             3887       114.94E+06   -57.472944E+06    -57.47316E+06       111.809464    344.82784E+06      -121.235718
             3888     114.9162E+06   -57.493568E+06    -57.49272E+06  -1.42706555E+03   344.830912E+06       528.779114
             3889   114.960952E+06   -57.453376E+06   -57.452884E+06   1.76067041E+03    344.82464E+06       719.689697
             3890    114.94216E+06   -57.477748E+06   -57.476804E+06      -784.669678   344.830912E+06       918.751892
             3891   114.940608E+06   -57.474492E+06   -57.477432E+06   1.27849878E+03   344.828032E+06       719.080078
             3892   114.933344E+06    -57.47898E+06    -57.48306E+06  -1.12554260E+03   344.828416E+06      -101.357231
             3893   114.899472E+06    -57.50364E+06   -57.503552E+06  -2.55498853E+03   344.826112E+06       7.19849539
             3894   114.926264E+06   -57.492416E+06   -57.489808E+06   2.53703394E+03   344.832704E+06  -1.15772229E+03
             3895   114.946568E+06     -57.4698E+06   -57.467616E+06   1.32629919E+03   344.829888E+06       637.663025
             3896     114.9414E+06   -57.471984E+06   -57.472544E+06      -901.427246   344.827776E+06      -640.239014
             3897   114.978584E+06   -57.445824E+06    -57.44574E+06   2.13887793E+03   344.829856E+06      -391.270538
             3898   114.939472E+06   -57.475344E+06   -57.476788E+06      -764.489502   344.829088E+06       352.530396
             3899   114.949984E+06   -57.464696E+06   -57.463796E+06   1.34276794E+03     344.8256E+06       64.9329224
             3900   114.938728E+06   -57.473196E+06   -57.473708E+06       758.623474   344.826528E+06      -111.644104
             3901   114.945096E+06    -57.46946E+06   -57.469392E+06      -439.270508   344.828608E+06      -255.533478
             3902   114.930128E+06   -57.480176E+06   -57.481764E+06  -1.39305151E+03   344.829664E+06      -202.168015
             3903   114.951272E+06   -57.464796E+06   -57.466124E+06       243.583282   344.828128E+06  -2.03931018E+03
             3904   114.935408E+06   -57.478956E+06   -57.479036E+06   1.21192163E+03   344.829376E+06       47.1947708
             3905   114.948048E+06   -57.466392E+06    -57.46568E+06       177.689194   344.826976E+06       212.245392
             3906   114.939232E+06     -57.4745E+06   -57.473412E+06      -424.118011   344.827744E+06      -233.007919
             3907    114.94468E+06   -57.469848E+06   -57.469832E+06       647.343506      344.828E+06      -39.8221626
             3908    114.94076E+06    -57.47252E+06   -57.474368E+06       967.044983   344.827648E+06       279.287933
             3909   114.942552E+06    -57.47156E+06   -57.471572E+06       145.209763   344.827968E+06      -1.62961125
             3910    114.94444E+06   -57.469748E+06   -57.468584E+06      -37.3946915   344.827584E+06      -93.4837799
             3911   114.961232E+06    -57.45994E+06     -57.4569E+06      -214.018494   344.830016E+06      -34.4491920
             3912   114.938096E+06   -57.474324E+06   -57.473196E+06      -256.701477   344.828896E+06      -455.676544
             3913   114.942496E+06    -57.47188E+06   -57.471832E+06      -89.8349075   344.828224E+06       83.0536880
             3914   114.934192E+06    -57.47622E+06    -57.47554E+06  -2.48197852E+03   344.829024E+06      -398.227875
             3915   114.942904E+06   -57.470712E+06   -57.469728E+06      -775.940491   344.828224E+06  -1.18633459E+03
             3916   114.934768E+06   -57.482136E+06   -57.480316E+06  -2.10176392E+03   344.830912E+06      -10.3049822
             3917    114.94636E+06   -57.468176E+06    -57.46796E+06       107.023247   344.827232E+06      -24.9301147
             3918   114.941208E+06     -57.4687E+06   -57.470664E+06      -513.530945   344.826592E+06       796.847900
             3919    114.94256E+06   -57.471924E+06   -57.471852E+06      -635.690491   344.828768E+06       121.743385
             3920   114.945368E+06   -57.469644E+06    -57.46972E+06      -374.749756   344.828416E+06       89.8695831
             3921   115.021904E+06   -57.399644E+06    -57.39826E+06   3.98532324E+03   344.817344E+06      -442.085388
             3922   114.963144E+06    -57.45974E+06   -57.456636E+06   1.17668860E+03   344.832192E+06       195.819916
             3923    114.92188E+06   -57.486516E+06   -57.485672E+06      -558.055847   344.829632E+06      -514.408203
             3924   114.923144E+06   -57.484932E+06   -57.485052E+06  -2.97195850E+03   344.825408E+06      -470.604614
             3925   114.934208E+06   -57.474368E+06   -57.476348E+06       16.1726933   344.826176E+06      -349.542053
             3926   114.944024E+06    -57.47624E+06    -57.48024E+06       27.8816738   344.830624E+06      -138.106079
             3927   114.944552E+06   -57.470388E+06   -57.470316E+06      -285.803894   344.828448E+06       48.6174316
             3928   114.993776E+06   -57.427976E+06   -57.426688E+06  -4.65826563E+03   344.823488E+06       337.903900
             3929   114.942896E+06     -57.4707E+06   -57.470244E+06      -106.231697   344.827712E+06      -71.8686142
             3930   114.942544E+06   -57.471832E+06   -57.470496E+06      -196.969742    344.82784E+06      -13.3708811
             3931   114.951144E+06   -57.466692E+06   -57.465036E+06  -2.92839355E+03   344.830464E+06       39.0436363
             3932    114.94296E+06   -57.471044E+06   -57.470956E+06       3.56230497   344.827776E+06      -91.8112640
             3933   114.952984E+06    -57.46598E+06   -57.464444E+06   1.79817053E+03   344.826784E+06       96.6475143
             3934   114.936008E+06   -57.477192E+06   -57.475892E+06  -4.20817334E+03   344.827936E+06       336.286957
             3935   114.942496E+06   -57.472084E+06   -57.471984E+06       107.887573    344.82848E+06       133.309021
             3936   114.932008E+06   -57.476776E+06    -57.47766E+06       432.146332    344.82688E+06      -586.550964
             3937   114.941976E+06   -57.471772E+06   -57.472072E+06       12.1021433   344.827904E+06      -16.4056644
             3938   114.945784E+06   -57.467648E+06   -57.466812E+06      -389.892975   344.826752E+06       13.9508858
             3939   114.943144E+06   -57.470544E+06   -57.470208E+06       24.2079830    344.82784E+06      -92.5961914
             3940   114.942912E+06   -57.470788E+06   -57.470804E+06      -4.66605616   344.827744E+06       65.4195938
             3941   114.942952E+06   -57.470808E+06    -57.47092E+06       25.8104115   344.827904E+06      -13.1732807
             3942   114.943144E+06   -57.470864E+06   -57.471104E+06       46.8117447   344.828192E+06       8.27778435
             3943   114.943208E+06   -57.470828E+06   -57.470864E+06      -39.7703056   344.827904E+06      -140.867844
             3944   114.943248E+06   -57.470608E+06   -57.470636E+06      -65.2777710   344.827808E+06      -155.433136
             3945   114.942416E+06    -57.47156E+06   -57.471464E+06       34.5074768    344.82784E+06      -100.873367
             3946   114.943576E+06   -57.468248E+06   -57.471172E+06       307.833069   344.827072E+06      -469.627045
             3947   114.934872E+06    -57.48012E+06   -57.479976E+06       650.203430   344.829824E+06       370.887817
             3948   114.947912E+06   -57.466848E+06   -57.466848E+06       60.9775734   344.827552E+06       366.817047
             3949   114.943856E+06   -57.469948E+06   -57.470028E+06       384.921600   344.827808E+06       319.734772
             3950    114.91456E+06   -57.495752E+06   -57.494536E+06       181.271057    344.83264E+06      -490.513611
             3951   114.942656E+06   -57.471584E+06    -57.47158E+06       224.515167      344.828E+06      -12.0967188
             3952     114.9448E+06   -57.469912E+06    -57.46982E+06       93.4290848   344.827808E+06       149.835846
             3953   114.942824E+06   -57.471112E+06   -57.471212E+06      -47.4932938   344.827776E+06       45.1415520
             3954   114.943168E+06   -57.470772E+06   -57.470904E+06      -168.318283   344.827968E+06      -64.6728363
             3955   114.943232E+06   -57.470964E+06   -57.470912E+06       86.8794174   344.828096E+06       172.682129
             3956   114.971352E+06   -57.446572E+06   -57.446476E+06  -8.35343164E+03    344.82544E+06       1.33298028
             3957    114.93896E+06    -57.47684E+06   -57.476828E+06   1.37648779E+03   344.832544E+06      -508.923279
             3958   114.940904E+06   -57.473912E+06     -57.4744E+06       112.467110   344.828128E+06      -278.400024
             3959    114.93304E+06   -57.482572E+06   -57.479212E+06   2.73115942E+03    344.82704E+06      -449.506287
             3960   114.884232E+06    -57.51572E+06    -57.51618E+06       51.8980064   344.826752E+06       658.905151
             3961   114.969904E+06    -57.45282E+06   -57.454236E+06   1.35953613E+03   344.830592E+06       474.501068
             3962   114.948448E+06   -57.465324E+06     -57.4663E+06       62.5501938   344.826624E+06       115.073273
             3963   114.940176E+06   -57.473076E+06   -57.473804E+06      -537.762573    344.82752E+06       191.145691
             3964   114.939888E+06   -57.475768E+06   -57.475436E+06       216.169846   344.828288E+06      -537.948120
             3965    114.94672E+06   -57.470888E+06   -57.472704E+06  -8.44619043E+03    344.82912E+06       94.9760056
             3966   114.867416E+06   -57.528036E+06   -57.528496E+06  -6.65754102E+03   344.825312E+06       210.163315
             3967   114.880664E+06   -57.525132E+06   -57.522948E+06  -7.39983350E+03    344.83312E+06      -630.687744
             3968   114.980288E+06   -57.442532E+06   -57.443488E+06       445.661438    344.82592E+06      -960.737610
             3969   114.932432E+06   -57.476596E+06    -57.47906E+06       392.245850   344.827552E+06      -21.4723816
             3970   114.928384E+06   -57.480768E+06   -57.479864E+06       464.670074    344.82608E+06       113.927788
             3971   114.943712E+06   -57.471704E+06      -57.473E+06      -439.109802   344.828192E+06      -306.404938
             3972   114.957216E+06   -57.460972E+06   -57.460644E+06  -1.21891736E+03   344.827072E+06      -331.042053
             3973   114.976432E+06   -57.447888E+06    -57.44792E+06   1.93755518E+03   344.830336E+06      -408.768433
             3974   114.963496E+06   -57.453076E+06   -57.453656E+06   3.21518359E+03   344.825792E+06      -139.665512
             3975   114.941712E+06   -57.471344E+06    -57.47148E+06      -132.701767   344.827456E+06       135.014908
             3976      114.968E+06    -57.45436E+06   -57.454764E+06      -542.200623      344.828E+06      -264.130981
             3977   114.937744E+06   -57.477668E+06   -57.477772E+06      -5.19769382    344.82992E+06      -505.005280
             3978   114.940416E+06   -57.472444E+06   -57.472564E+06       667.427368   344.827328E+06       626.795288
             3979   114.948768E+06    -57.46822E+06    -57.46928E+06  -1.91023792E+03    344.82688E+06      -950.976624
             3980   114.943984E+06   -57.469244E+06   -57.469376E+06       97.1305542      344.828E+06      -104.086090
             3981   114.953056E+06   -57.459564E+06   -57.459984E+06  -4.06857178E+03   344.823776E+06       241.652939
             3982   114.939912E+06   -57.469028E+06   -57.471688E+06       15.1073170   344.822016E+06   1.46904456E+03
             3983   114.958832E+06   -57.462952E+06   -57.464728E+06   8.01690527E+03   344.830944E+06       162.198395
             3984    114.94368E+06   -57.468772E+06   -57.468484E+06      -531.514893    344.82704E+06       168.144455
             3985   114.855648E+06   -57.551004E+06   -57.552436E+06  -1.08256641E+03   344.840064E+06       581.823303
             3986   114.951192E+06   -57.461064E+06   -57.462384E+06      -755.060852   344.828832E+06      -735.992981
             3987   114.941296E+06   -57.472192E+06   -57.471816E+06       250.490082   344.827296E+06      -3.83836031
             3988   114.952304E+06   -57.464432E+06   -57.465368E+06   1.21153430E+03    344.82688E+06       291.088867
             3989    114.94296E+06   -57.470668E+06   -57.470876E+06      -94.8723373   344.827968E+06       126.473694
             3990    114.93012E+06   -57.481956E+06   -57.482856E+06   1.72985034E+03   344.826208E+06      -423.792267
             3991   114.863832E+06   -57.531424E+06   -57.532048E+06  -6.94186279E+03   344.830816E+06  -1.41241479E+03
             3992   114.940344E+06   -57.473392E+06    -57.47418E+06      -641.300842   344.827872E+06      -219.600433
             3993    114.94036E+06   -57.473868E+06   -57.473584E+06      -529.268433    344.82832E+06      -460.049011
             3994   114.943568E+06   -57.469772E+06   -57.470016E+06       348.524231    344.82784E+06      -763.019531
             3995   114.934688E+06   -57.475796E+06   -57.477664E+06   1.12738647E+03   344.829088E+06       321.329437
             3996   114.927592E+06   -57.481868E+06   -57.481816E+06  -2.33931055E+03   344.825792E+06      -231.681793
             3997   114.943296E+06   -57.470696E+06   -57.471064E+06       233.575134   344.827904E+06       28.8604565
             3998   114.944616E+06   -57.470696E+06   -57.470196E+06      -18.9018955   344.828096E+06      -31.1718712
             3999   114.949328E+06   -57.466956E+06   -57.468068E+06  -1.05164722E+03   344.828512E+06       303.190002
             4000   114.941336E+06   -57.472592E+06    -57.47188E+06       239.314758    344.82832E+06       186.684418
             4001    114.93952E+06   -57.473636E+06    -57.47396E+06      -126.471565    344.82848E+06       45.1315193
             4002   114.941224E+06   -57.472636E+06   -57.472308E+06       364.878754   344.828192E+06       204.801544
             4003   114.897968E+06   -57.510084E+06   -57.508584E+06   2.38016577E+03   344.832672E+06      -439.891479
             4004   114.942296E+06   -57.471668E+06   -57.471792E+06      -28.2216110   344.828384E+06       15.5548096
             4005    114.94336E+06   -57.470996E+06   -57.471676E+06       388.967957   344.827648E+06       221.978180
             4006   114.946888E+06    -57.47208E+06    -57.47156E+06   2.26830444E+03      344.832E+06      -300.975006
             4007       114.95E+06   -57.464648E+06   -57.464516E+06      -673.323303   344.827296E+06       438.592346
             4008    114.94532E+06   -57.469252E+06    -57.47004E+06       194.279160   344.827456E+06      -558.522766
             4009   114.939288E+06    -57.47506E+06   -57.473872E+06       111.383865     344.8288E+06      -374.137115
             4010   114.936312E+06   -57.476484E+06   -57.476328E+06      -688.974915   344.828576E+06       438.974884
             4011     114.9486E+06    -57.46546E+06   -57.465268E+06       314.818451   344.827296E+06       428.453339
             4012   114.934664E+06   -57.478092E+06   -57.477828E+06      -921.689819   344.829056E+06       384.455475
             4013    114.92524E+06    -57.48408E+06    -57.48414E+06      -543.554565   344.825824E+06  -1.67747180E+03
             4014   114.943424E+06    -57.47026E+06    -57.47046E+06       154.158325    344.82864E+06       205.208298
             4015   114.937912E+06   -57.475328E+06   -57.477268E+06       141.548584    344.82832E+06      -292.184296
             4016   114.943744E+06   -57.469876E+06   -57.471184E+06       72.7441254   344.827168E+06      -629.815491
             4017   114.944632E+06   -57.470032E+06   -57.470328E+06      -134.249878   344.828192E+06       173.761337
             4018   114.870664E+06   -57.521924E+06   -57.522056E+06  -6.00654248E+03   344.823072E+06      -612.437317
             4019   114.941768E+06   -57.472152E+06   -57.471948E+06      -207.296249   344.828192E+06      -115.717255
             4020   114.942552E+06   -57.471324E+06   -57.471196E+06      -65.8175125   344.827744E+06       64.1546173
             4021    114.94884E+06   -57.469232E+06   -57.468684E+06      -429.872345   344.831328E+06       297.215179
             4022   114.944176E+06   -57.469316E+06   -57.469708E+06      -203.492554   344.827904E+06      -210.508087
             4023   114.944272E+06     -57.4705E+06   -57.470416E+06      -816.020508   344.828096E+06      -243.473602
             4024    114.94352E+06    -57.47138E+06    -57.47022E+06       113.597298   344.825728E+06      -532.014771
             4025   114.944664E+06    -57.47016E+06   -57.469656E+06      -51.2191544   344.827872E+06       97.0824127
             4026    114.94596E+06   -57.469484E+06   -57.468396E+06       587.699646   344.830816E+06   1.22704675E+03
             4027     114.9674E+06    -57.44424E+06   -57.442624E+06   1.47538525E+03   344.821568E+06   1.16171851E+03
             4028    114.92912E+06   -57.478988E+06   -57.478204E+06  -2.90582104E+03   344.824288E+06       511.614716
             4029   114.943128E+06    -57.47068E+06   -57.470352E+06      -21.1188965   344.827648E+06      -90.8214722
             4030      114.951E+06     -57.4633E+06   -57.462664E+06   1.41582813E+03   344.825152E+06       234.786346
             4031   114.978744E+06    -57.43766E+06   -57.436832E+06  -1.78611414E+03   344.821568E+06       525.274963
             4032   114.943392E+06   -57.470404E+06    -57.47022E+06      -65.4807739   344.827968E+06      -42.3936462
             4033   114.897016E+06   -57.506752E+06   -57.506256E+06  -4.93692285E+03   344.829696E+06  -1.01991907E+03
             4034   114.942064E+06   -57.472908E+06    -57.47286E+06      -446.509399   344.828096E+06       60.4494667
             4035   114.939816E+06   -57.471536E+06    -57.47002E+06      -14.9096537   344.827232E+06   1.04807251E+03
             4036    114.89888E+06    -57.51122E+06    -57.51016E+06  -2.44126196E+03   344.834656E+06       377.944275
             4037   114.938144E+06    -57.47602E+06    -57.47542E+06       271.399750    344.82864E+06       399.171021
             4038    114.93768E+06   -57.478364E+06   -57.478588E+06      -473.303986   344.828704E+06       631.735474
             4039   114.864416E+06   -57.535412E+06   -57.533684E+06  -4.95183838E+03   344.833696E+06   1.16948962E+03
             4040   114.975728E+06   -57.441392E+06   -57.440204E+06       345.197632    344.82544E+06   1.23562195E+03
             4041   114.938712E+06   -57.474584E+06   -57.474544E+06      -39.9477386   344.827424E+06      -160.231918
             4042    114.94548E+06   -57.468972E+06   -57.468896E+06      -544.435791    344.82784E+06      -364.537628
             4043   114.949208E+06    -57.46636E+06   -57.466144E+06       318.467163   344.827232E+06       483.951111
             4044   114.943976E+06   -57.470996E+06   -57.470364E+06      -606.046997      344.828E+06       10.6941776
             4045   114.948672E+06   -57.467768E+06   -57.466344E+06   1.75850122E+03   344.830528E+06       648.895447
             4046   114.948928E+06   -57.467368E+06   -57.467784E+06      -974.065430    344.82944E+06       322.880524
             4047   114.957728E+06   -57.464784E+06   -57.464772E+06  -5.10802979E+03   344.833472E+06      -239.315598
             4048   114.983064E+06     -57.4356E+06   -57.434588E+06  -2.21854175E+03   344.823392E+06       474.694122
             4049   114.938064E+06   -57.475476E+06   -57.474872E+06      -151.550201   344.828704E+06       55.0609016
             4050    114.94168E+06   -57.471892E+06    -57.47192E+06       3.43066978   344.828128E+06       77.5852509
             4051     114.9442E+06   -57.470356E+06   -57.469016E+06       41.5088768   344.827424E+06       535.875916
             4052      114.943E+06   -57.471268E+06   -57.471276E+06       89.0807724    344.82784E+06      -301.357147
             4053    114.94304E+06    -57.47144E+06   -57.471592E+06       128.531616   344.828416E+06      -155.964249
             4054   114.950056E+06   -57.463716E+06   -57.464372E+06      -726.110291   344.826656E+06      -417.513550
             4055   114.942104E+06   -57.469468E+06   -57.472224E+06   4.12692529E+03    344.82912E+06  -1.12938159E+03
             4056   114.939424E+06    -57.47524E+06   -57.474708E+06  -1.10585571E+03   344.828864E+06      -137.108597
             4057   114.935728E+06   -57.480756E+06   -57.478948E+06       824.456909   344.828224E+06       476.783752
             4058   114.942584E+06   -57.471156E+06   -57.470872E+06       90.5179977   344.827712E+06       16.9120674
             4059   114.942712E+06   -57.470972E+06   -57.470996E+06       15.6999846   344.827776E+06       26.2933235
             4060    114.95188E+06   -57.463856E+06   -57.464012E+06       209.557938    344.82768E+06       148.786224
             4061   114.941832E+06     -57.4729E+06   -57.470724E+06       121.883560    344.82944E+06  -1.22123987E+03
             4062   114.942688E+06   -57.471792E+06    -57.46814E+06       838.380249   344.829152E+06  -1.14128308E+03
             4063   114.941824E+06   -57.471864E+06   -57.471756E+06       154.934296   344.827584E+06       80.6852722
             4064    114.94348E+06    -57.47018E+06    -57.46926E+06       124.432106   344.827904E+06       174.238434
             4065   114.878608E+06   -57.526776E+06   -57.525544E+06  -3.43312573E+03   344.835808E+06      -440.114166
             4066   114.942272E+06   -57.471472E+06   -57.471292E+06      -309.391998    344.82752E+06      -598.121826
             4067   114.947072E+06   -57.469228E+06    -57.46894E+06      -780.851807   344.829184E+06       338.781799
             4068   114.985336E+06   -57.432436E+06   -57.433248E+06   1.73228088E+03   344.817824E+06   1.38894519E+03
             4069    114.94248E+06   -57.471116E+06   -57.471296E+06      -19.6422386    344.82784E+06       25.8627262
             4070   114.937456E+06   -57.477888E+06   -57.478964E+06      -468.572357   344.829792E+06      -258.024414
             4071   114.942632E+06   -57.471552E+06   -57.471436E+06       100.513695   344.828128E+06      -181.026169
             4072   114.944816E+06    -57.46958E+06     -57.4689E+06      -191.078308   344.827936E+06      -187.332077
             4073   114.944472E+06   -57.469108E+06   -57.469304E+06       401.514923   344.827488E+06      -28.6879215
             4074   114.868168E+06   -57.527528E+06   -57.528988E+06   4.42663721E+03    344.82368E+06       888.317566
             4075    114.96692E+06    -57.45044E+06   -57.451096E+06   3.24907397E+03   344.825664E+06      -332.715729
             4076   114.942824E+06    -57.47102E+06   -57.470472E+06      -23.0874786      344.828E+06       24.3844624
             4077   114.943736E+06   -57.471012E+06   -57.471916E+06      -393.361694   344.827136E+06       386.326324
             4078   114.944344E+06   -57.470148E+06   -57.470144E+06       303.985565   344.828128E+06      -114.527794
             4079   114.949512E+06   -57.469096E+06   -57.469244E+06      -274.840515   344.831392E+06       163.035583
             4080   114.970728E+06   -57.450224E+06   -57.452004E+06   3.09855298E+03   344.827136E+06       903.829651
             4081   114.959584E+06   -57.456764E+06   -57.457644E+06  -2.14356641E+03   344.825408E+06       172.680771
             4082   114.942264E+06    -57.47178E+06   -57.471652E+06       54.8048706    344.82816E+06       38.3100243
             4083   114.946904E+06   -57.468332E+06   -57.468468E+06      -332.477783    344.82816E+06      -52.5455055
             4084    114.94224E+06    -57.47134E+06    -57.47074E+06       128.247284    344.82768E+06      -26.1460552
             4085   114.950312E+06   -57.464928E+06    -57.46378E+06  -1.55869055E+03   344.826784E+06       378.593231
             4086   114.942656E+06    -57.47126E+06    -57.47084E+06       92.2442627   344.828064E+06      -123.968269
             4087   114.940816E+06   -57.472368E+06   -57.472528E+06       97.6518707    344.82816E+06      -193.109329
             4088   114.943848E+06    -57.47338E+06   -57.472656E+06  -1.49974280E+03    344.82944E+06       17.7515736
             4089   115.000096E+06   -57.428144E+06   -57.426928E+06  -1.66086279E+03    344.82528E+06   2.02791772E+03
             4090   114.947784E+06   -57.467816E+06    -57.46786E+06   1.03072717E+03   344.827296E+06       414.213562
             4091   114.944192E+06   -57.469736E+06   -57.469632E+06      -109.230392   344.827552E+06      -107.573929
             4092    114.94244E+06   -57.472632E+06   -57.472836E+06      -234.734650   344.828128E+06       253.139084
             4093   114.946544E+06   -57.467828E+06     -57.4671E+06  -1.00760406E+03   344.829152E+06      -692.408325
             4094    114.94028E+06   -57.473916E+06   -57.473612E+06      -170.843826   344.828512E+06       25.1773968
             4095   114.942136E+06   -57.473216E+06   -57.473396E+06      -788.359924   344.826816E+06      -898.206909
             4096   114.940968E+06    -57.47294E+06   -57.472944E+06       273.720154   344.828288E+06      -118.226845
             4097   114.962424E+06   -57.455992E+06   -57.457004E+06       450.972168   344.826688E+06       361.839294
             4098   114.946776E+06   -57.467744E+06   -57.467164E+06       813.843872   344.826048E+06       877.892700
             4099   114.941464E+06   -57.473716E+06    -57.47148E+06  -1.52206934E+03    344.82688E+06      -321.211578
             4100    114.94488E+06   -57.469364E+06   -57.469716E+06      -219.825012   344.827648E+06      -266.003357
             4101   114.916328E+06   -57.493808E+06   -57.494568E+06   3.30184326E+03    344.82832E+06       521.803772
             4102   114.932872E+06   -57.477408E+06    -57.47752E+06  -1.91856580E+03   344.831136E+06       946.291809
             4103   114.943608E+06    -57.47014E+06   -57.470116E+06       5.26961994   344.828032E+06       304.844086
             4104   114.940904E+06   -57.472844E+06   -57.473384E+06       143.889160   344.828128E+06      -484.105103
             4105   114.946192E+06    -57.46862E+06   -57.469124E+06      -488.289948    344.82768E+06       71.8164978
             4106    114.94448E+06   -57.467952E+06    -57.46832E+06       264.050598   344.826752E+06      -493.779236
             4107   114.942752E+06   -57.471028E+06   -57.470776E+06      -97.4532776   344.827616E+06      -84.6023254
             4108   114.909832E+06   -57.499396E+06   -57.500124E+06   6.09095361E+03    344.82992E+06       427.555511
             4109    114.95436E+06   -57.460096E+06   -57.460108E+06   1.18054590E+03   344.824736E+06       268.524750
             4110   114.945472E+06    -57.46602E+06    -57.46792E+06   2.36489380E+03    344.82368E+06       687.739319
             4111   114.992888E+06   -57.435152E+06   -57.433276E+06   5.74289551E+03   344.828864E+06       106.421516
             4112   114.933352E+06   -57.479024E+06   -57.479044E+06   1.43535962E+03   344.827232E+06       378.375183
             4113   114.988024E+06   -57.428328E+06   -57.428492E+06  -2.46442407E+03   344.820192E+06      -292.192261
             4114   114.924752E+06   -57.489276E+06   -57.490264E+06   7.01691553E+03   344.832768E+06      -174.387619
             4115   114.921328E+06   -57.485864E+06   -57.486892E+06  -3.16823193E+03   344.825856E+06      -110.932220
             4116   114.947696E+06   -57.468336E+06   -57.469276E+06      -944.733337   344.827648E+06      -681.159302
             4117   114.942728E+06   -57.470572E+06    -57.46984E+06       403.597809   344.828128E+06       117.123047
             4118   114.941952E+06    -57.47608E+06   -57.474092E+06      -579.145386   344.828544E+06      -435.186890
             4119   114.925944E+06   -57.486976E+06   -57.484612E+06       72.2266846    344.83104E+06      -70.2843857
             4120    114.91244E+06   -57.497924E+06   -57.498588E+06  -4.82535205E+03   344.832544E+06       600.413025
             4121    114.92884E+06    -57.48412E+06    -57.48342E+06  -1.83736548E+03   344.831072E+06   1.42407239E+03
             4122   114.969488E+06   -57.447916E+06   -57.446192E+06   1.94609045E+03   344.820512E+06  -1.19902112E+03
             4123    114.94416E+06   -57.469852E+06   -57.469556E+06       222.562775   344.827904E+06       51.4267197
             4124   114.873584E+06   -57.537744E+06    -57.53704E+06  -4.43974707E+03   344.838112E+06   2.07998975E+03
             4125   115.007624E+06   -57.422848E+06   -57.421948E+06       267.388306   344.826496E+06   2.12664917E+03
             4126   114.960616E+06   -57.455664E+06   -57.456208E+06   5.79901367E+03   344.825792E+06      -356.268463
             4127   114.948488E+06   -57.472708E+06    -57.46988E+06   2.14391895E+03   344.831456E+06  -1.08544165E+03
             4128   114.927696E+06   -57.485684E+06   -57.488292E+06   2.06833545E+03   344.827904E+06       289.917419
             4129      114.941E+06   -57.475256E+06   -57.476068E+06       698.302734      344.828E+06      -387.570801
             4130   114.935704E+06   -57.473592E+06   -57.474444E+06  -1.57363806E+03   344.827616E+06       619.638306
             4131   114.910544E+06   -57.495804E+06   -57.498808E+06       418.290558   344.831232E+06       835.363098
             4132    114.94472E+06   -57.469108E+06    -57.46908E+06      -54.3980370   344.827776E+06       16.6119556
             4133   114.929544E+06   -57.482712E+06   -57.482904E+06       104.967636      344.828E+06   1.10063269E+03
             4134    114.94568E+06   -57.467284E+06   -57.465192E+06      -271.414734   344.828096E+06       633.073425
             4135     114.9418E+06   -57.472364E+06   -57.473024E+06       355.621765   344.827712E+06       130.644455
             4136   114.946728E+06   -57.467768E+06   -57.466308E+06      -163.403854   344.828448E+06       297.424591
             4137   114.939768E+06    -57.47822E+06   -57.476188E+06   2.27451929E+03   344.831648E+06       808.304504
             4138    114.92384E+06   -57.487596E+06   -57.487064E+06  -1.99867114E+03   344.831264E+06       571.709351
             4139   114.944416E+06   -57.470052E+06   -57.469996E+06       327.544617   344.827744E+06       104.658516
             4140    114.94832E+06   -57.464796E+06   -57.464188E+06       38.6035614   344.828128E+06      -403.343109
             4141   114.946368E+06   -57.470676E+06    -57.47106E+06      -100.511635   344.831968E+06      -300.921875
             4142    114.94092E+06      -57.468E+06   -57.468408E+06       326.144379   344.825248E+06       712.906189
             4143   114.942384E+06   -57.471276E+06   -57.471396E+06       403.261566    344.82752E+06       231.573059
             4144   114.944448E+06   -57.468928E+06   -57.468964E+06       200.484390   344.827456E+06      -90.6004791
             4145   114.940008E+06   -57.473896E+06   -57.473748E+06       257.229584   344.827584E+06       280.792358
             4146   114.940008E+06    -57.47406E+06   -57.473824E+06       370.150452   344.827616E+06       316.144012
             4147   114.944728E+06    -57.46744E+06    -57.46708E+06   3.33272412E+03   344.824416E+06       639.451294
             4148   114.921968E+06   -57.487332E+06    -57.48524E+06      -822.739502   344.830432E+06       231.385391
             4149   114.943584E+06   -57.470908E+06   -57.470756E+06       26.2943478   344.827936E+06       109.876549
             4150   114.945784E+06    -57.46962E+06   -57.470036E+06      -224.719269   344.826784E+06      -482.332123
             4151    114.94244E+06   -57.471976E+06   -57.471848E+06       149.076431   344.828224E+06       63.9755363
             4152   114.950296E+06   -57.461508E+06    -57.46392E+06       730.927795   344.826496E+06      -609.232239
             4153   114.943328E+06   -57.469668E+06    -57.47112E+06       16.4869976    344.82704E+06       174.399460
             4154   114.955544E+06   -57.458204E+06   -57.458308E+06       885.188599   344.825216E+06       856.193237
             4155   114.944008E+06   -57.469688E+06   -57.467072E+06      -796.363831   344.827904E+06       672.445862
             4156   114.943352E+06   -57.471852E+06   -57.473124E+06      -288.376709   344.828288E+06       -627.71875
             4157   114.975536E+06   -57.439536E+06   -57.437816E+06  -2.55168652E+03   344.819936E+06      -43.3093376
             4158   114.948784E+06      -57.462E+06   -57.463044E+06      -809.145264   344.825504E+06       169.475250
             4159   114.944736E+06    -57.46906E+06   -57.469412E+06      -230.544052   344.827488E+06       155.906265
             4160   114.942552E+06    -57.47024E+06   -57.470076E+06      -640.472900   344.827648E+06       129.835114
             4161   114.940936E+06   -57.477896E+06   -57.477064E+06       207.825546   344.828896E+06      -220.361679
             4162   114.941768E+06   -57.472504E+06   -57.472352E+06      -435.648865   344.828192E+06       32.3327675
             4163   114.951992E+06   -57.459856E+06   -57.461628E+06       935.392395   344.824896E+06  -1.73901697E+03
             4164   114.945768E+06   -57.468464E+06   -57.468392E+06       205.078308   344.827296E+06       50.9737091
             4165   114.942032E+06   -57.472104E+06   -57.472228E+06      -321.063965   344.828224E+06      -93.2741776
             4166   114.938728E+06   -57.475144E+06   -57.479372E+06       145.512756   344.827232E+06       350.744934
             4167    114.91116E+06    -57.49512E+06   -57.495868E+06  -1.65510034E+03   344.825792E+06       550.696594
             4168   114.941968E+06   -57.472092E+06   -57.472032E+06      -301.637848      344.828E+06       127.032112
             4169    114.93836E+06   -57.475744E+06   -57.475508E+06       156.022308   344.827968E+06       347.414215
             4170   114.923288E+06   -57.484704E+06    -57.48072E+06  -2.28041699E+03   344.828544E+06   1.82333630E+03
             4171   114.940752E+06    -57.47104E+06   -57.468724E+06       539.112549   344.827872E+06   1.04530994E+03
             4172   114.957288E+06   -57.457624E+06   -57.457764E+06      -775.001404   344.827744E+06   1.28587634E+03
             4173   114.942184E+06   -57.471772E+06   -57.471596E+06      -229.023178   344.827776E+06      -415.886078
             4174   114.933592E+06   -57.481696E+06   -57.481652E+06       853.813293    344.83072E+06       312.787750
             4175   114.940192E+06    -57.47478E+06    -57.47584E+06       380.125488   344.828224E+06       721.229126
             4176   114.942912E+06   -57.471276E+06   -57.471496E+06      -138.463104      344.828E+06       91.0522461
             4177    114.94136E+06   -57.472688E+06   -57.472536E+06       257.419983      344.828E+06      -172.934677
             4178   114.943696E+06   -57.471152E+06   -57.470348E+06       177.297760   344.828896E+06       155.357269
             4179    114.94228E+06   -57.471552E+06   -57.471024E+06      -75.6707535   344.827904E+06      -41.3399620
             4180   114.943056E+06   -57.470716E+06   -57.470352E+06      -34.3614311   344.827808E+06       70.0673065
             4181    114.93556E+06   -57.478004E+06      -57.477E+06   1.34686365E+03    344.82832E+06       555.530640
             4182   115.036464E+06   -57.395184E+06    -57.39562E+06  -3.11933496E+03   344.823424E+06       679.465759
             4183   114.956288E+06   -57.462612E+06   -57.462776E+06   2.21097729E+03   344.827392E+06      -682.162170
             4184   114.934144E+06   -57.483976E+06   -57.487896E+06      -535.745300   344.829888E+06       795.065857
             4185   114.947864E+06    -57.46754E+06    -57.46826E+06  -1.07988562E+03   344.827264E+06      -365.774994
             4186   114.868784E+06   -57.534516E+06   -57.536432E+06      -766.019226   344.835136E+06      -80.7270508
             4187   114.940304E+06     -57.4737E+06   -57.473648E+06       269.261383   344.828352E+06      -16.4037590
             4188   114.946272E+06   -57.468496E+06   -57.468564E+06      -541.016602    344.82736E+06      -241.291626
             4189   114.946832E+06   -57.466532E+06   -57.466224E+06       823.057190   344.826432E+06       135.828857
             4190   114.918816E+06   -57.493756E+06   -57.493316E+06   1.99471729E+03   344.832544E+06       178.797562
             4191   114.942696E+06   -57.470976E+06   -57.471028E+06       171.516403    344.82768E+06       38.9100418
             4192   114.938384E+06   -57.475352E+06   -57.476416E+06  -2.24828882E+03    344.82672E+06  -1.48195081E+03
             4193   114.941776E+06   -57.472144E+06    -57.47218E+06      -450.583191    344.82816E+06       44.4894638
             4194   114.945032E+06   -57.469536E+06    -57.46946E+06       562.756409   344.828096E+06       49.2264900
             4195   114.937688E+06   -57.472012E+06   -57.474204E+06   1.24798389E+03   344.825792E+06       641.231140
             4196   114.947472E+06   -57.472692E+06   -57.471048E+06   1.28112744E+03   344.831712E+06       129.497772
             4197   114.944168E+06   -57.469196E+06    -57.46842E+06       562.803833   344.829088E+06       412.528809
             4198   114.944384E+06   -57.470544E+06   -57.471488E+06       864.022461    344.82832E+06      -134.661224
             4199   114.954128E+06   -57.461392E+06   -57.461872E+06       359.034027    344.82752E+06      -121.701881
             4200   114.943048E+06   -57.470784E+06   -57.470776E+06       366.999878   344.827712E+06      -1.91062176
             4201    114.92932E+06   -57.479292E+06   -57.481408E+06   1.18434180E+03    344.82688E+06       544.108948
             4202   114.944448E+06   -57.469252E+06   -57.470028E+06   1.30554004E+03   344.827008E+06       507.299286
             4203   114.945424E+06   -57.469024E+06   -57.469888E+06       213.283630   344.829088E+06       466.084869
             4204    114.92816E+06   -57.480716E+06   -57.483888E+06      -597.049438    344.82592E+06      -402.915009
             4205   114.942144E+06   -57.471552E+06    -57.47148E+06      -25.3807163   344.827808E+06      -13.9230728
             4206   114.943408E+06   -57.470704E+06   -57.470372E+06       76.6896973   344.828288E+06       23.0245686
             4207    114.94472E+06   -57.469352E+06    -57.46914E+06   1.05933301E+03    344.82976E+06       858.979492
             4208    114.94228E+06   -57.471468E+06   -57.471536E+06       63.3091621    344.82784E+06      -21.2828178
             4209    114.94372E+06       -57.47E+06   -57.469788E+06      -25.4073353   344.827936E+06       23.3062057
             4210   114.941784E+06   -57.472064E+06   -57.471956E+06      -10.5661869   344.828096E+06      -34.3945045
             4211    114.94084E+06   -57.473968E+06   -57.474288E+06       654.765076   344.828512E+06       602.369751
             4212   114.941496E+06   -57.472732E+06   -57.472956E+06      -66.1038208   344.828224E+06      -167.363968
             4213     114.9434E+06   -57.471012E+06   -57.472636E+06      -628.793823   344.828032E+06       184.096466
             4214   114.945736E+06   -57.468592E+06   -57.468464E+06      -372.317230   344.827872E+06       204.321152
             4215   114.939176E+06   -57.473572E+06   -57.473644E+06      -207.476563   344.827616E+06      -40.6248055
             4216    114.94196E+06    -57.47214E+06   -57.472224E+06       9.28381920    344.82864E+06       145.212173
             4217   114.932216E+06   -57.485428E+06     -57.4842E+06      -209.509018   344.833248E+06       95.8557205
             4218   114.945384E+06   -57.468272E+06   -57.470368E+06   1.15973389E+03   344.827104E+06  -1.14460156E+03
             4219   114.948112E+06    -57.46568E+06   -57.465272E+06       588.529114   344.826784E+06       270.769928
             4220   114.940648E+06    -57.47276E+06   -57.472844E+06       42.6896324   344.828288E+06      -38.4141045
             4221   114.945768E+06    -57.46886E+06   -57.468756E+06       261.634979   344.827936E+06      -23.7998104
             4222   114.942312E+06   -57.471504E+06   -57.471736E+06       168.236221   344.827648E+06      -136.947342
             4223   114.912208E+06   -57.494112E+06    -57.49482E+06   5.34003564E+03   344.828864E+06       731.454590
             4224   114.941088E+06   -57.472104E+06   -57.471992E+06       132.797714   344.827744E+06      -80.4277267
             4225    114.93952E+06    -57.47384E+06   -57.473792E+06      -293.636261   344.828448E+06       156.558578
             4226   114.942248E+06   -57.471632E+06   -57.471716E+06      -60.8869591    344.82768E+06      -109.757988
             4227    114.91724E+06   -57.491976E+06     -57.4914E+06      -435.695068   344.830848E+06       684.327271
             4228   114.944104E+06   -57.470572E+06   -57.470468E+06       12.3033218   344.828192E+06       50.5072632
             4229   114.937432E+06     -57.4748E+06   -57.474952E+06       454.059875    344.82752E+06       414.069580
             4230   114.947384E+06    -57.46834E+06   -57.466956E+06       631.635437   344.828544E+06       289.758789
             4231   114.944416E+06   -57.471576E+06   -57.471696E+06       713.840393   344.827712E+06      -555.469055
             4232   114.941048E+06   -57.472252E+06    -57.47224E+06       487.694336   344.828064E+06       194.075104
             4233   114.943264E+06   -57.470632E+06   -57.470416E+06      -369.290100   344.827744E+06      -26.5406322
             4234    114.92404E+06   -57.488836E+06    -57.48774E+06  -1.63746875E+03   344.833504E+06   1.14124585E+03
             4235   114.952288E+06   -57.464608E+06   -57.466408E+06      -83.4447403   344.828864E+06       774.209229
             4236   114.951408E+06    -57.46234E+06   -57.461968E+06       356.112640   344.825984E+06       303.660034
             4237   114.938952E+06    -57.47766E+06     -57.4757E+06       381.295959   344.829504E+06       144.776230
             4238   114.947504E+06   -57.467128E+06   -57.467188E+06       574.521057    344.82816E+06       147.030502
             4239   114.970304E+06   -57.448928E+06    -57.44752E+06      -84.2875900   344.826816E+06       323.831299
             4240    114.96812E+06    -57.44696E+06   -57.448916E+06  -4.29247754E+03   344.821664E+06      -74.5611496
             4241   114.987976E+06   -57.440232E+06   -57.438332E+06   1.35756482E+03   344.825152E+06       108.818954
             4242   114.940632E+06   -57.473236E+06   -57.467844E+06      -312.047577   344.828448E+06      -712.123718
             4243   114.974872E+06   -57.445288E+06   -57.441768E+06   1.16270947E+03   344.831136E+06       697.721008
             4244   114.944088E+06   -57.470028E+06   -57.469856E+06      -130.921524   344.828192E+06      -126.887825
             4245   114.922128E+06    -57.48914E+06   -57.490352E+06  -1.38512878E+03   344.826784E+06      -976.921509
             4246   114.941928E+06   -57.469736E+06   -57.470024E+06      -918.253357   344.827904E+06       157.489960
             4247       114.94E+06   -57.475572E+06    -57.47636E+06       520.631653   344.830048E+06       396.525482
             4248   114.897848E+06   -57.506276E+06   -57.503136E+06   3.64954150E+03   344.831808E+06       710.474487
             4249    114.94132E+06    -57.47186E+06   -57.471612E+06      -334.197113   344.827616E+06      -149.700104
             4250   114.944328E+06   -57.470192E+06   -57.468584E+06      -11.3629351   344.828992E+06       688.658875
             4251      114.947E+06    -57.47154E+06   -57.471308E+06       466.710815   344.829472E+06      -348.490845
             4252    114.95712E+06   -57.461284E+06    -57.46176E+06   1.53606763E+03   344.828928E+06       173.371948
             4253    114.96244E+06   -57.457092E+06   -57.458036E+06      -767.734741    344.82992E+06       18.9362564
             4254      114.943E+06    -57.47148E+06   -57.471308E+06       33.2800751   344.828544E+06       251.740479
             4255   114.943816E+06   -57.470552E+06   -57.470864E+06       156.182983   344.827904E+06       335.633514
             4256    114.94272E+06   -57.471752E+06   -57.471732E+06       164.243073   344.828544E+06      -103.605431
             4257      114.943E+06     -57.4709E+06   -57.470972E+06       74.2124023    344.82784E+06      -192.025467
             4258   114.911632E+06   -57.499536E+06    -57.49738E+06   4.70048389E+03   344.832032E+06      -403.339172
             4259   114.940616E+06   -57.470644E+06   -57.470248E+06   5.22124854E+03    344.82784E+06       821.789612
             4260   114.951208E+06   -57.460596E+06   -57.460552E+06       713.765076   344.823744E+06       142.931427
             4261   114.942056E+06    -57.47184E+06   -57.471884E+06      -182.732529   344.828128E+06       45.9879875
             4262   114.942136E+06   -57.472176E+06   -57.472056E+06      -5.01942635   344.828192E+06      -29.9393902
             4263   114.943176E+06   -57.475772E+06   -57.475128E+06      -909.573303   344.834432E+06       343.505280
             4264   114.984344E+06   -57.433216E+06     -57.4351E+06  -3.44676074E+03   344.821696E+06       484.788971
             4265   114.940864E+06   -57.473784E+06   -57.473844E+06      -34.5273018   344.828768E+06      -44.8289490
             4266   114.943088E+06     -57.4711E+06   -57.470888E+06       263.460968   344.827744E+06      -196.105164
             4267   114.943952E+06   -57.470024E+06   -57.470008E+06       180.807739   344.828224E+06      -63.1169510
             4268      114.923E+06   -57.487868E+06   -57.486404E+06   2.38668970E+03    344.82944E+06       137.258835
             4269   114.943896E+06   -57.470384E+06   -57.470132E+06      -150.092667   344.827904E+06      -14.3779230
             4270   114.938528E+06    -57.47488E+06   -57.474172E+06       238.243546   344.828608E+06       117.249329
             4271   114.944136E+06   -57.469824E+06   -57.470104E+06      -150.936447   344.828192E+06       10.9412327
             4272   114.980008E+06   -57.445556E+06   -57.444952E+06  -2.47597803E+03   344.832896E+06       364.646606
             4273   114.942408E+06    -57.47164E+06   -57.471308E+06       11.2482691    344.82816E+06      -216.486832
             4274   114.942024E+06   -57.471768E+06   -57.471704E+06      -75.5861435   344.827968E+06      -121.289124
             4275    114.96884E+06   -57.450884E+06     -57.4515E+06       106.033463    344.82672E+06      -462.753571
             4276   114.943688E+06   -57.470764E+06    -57.47062E+06      -228.215775   344.828128E+06      -105.984871
             4277    114.94844E+06   -57.465696E+06   -57.464908E+06       71.1435852   344.826144E+06      -172.859207
             4278     114.9192E+06   -57.489128E+06   -57.489328E+06   4.09323242E+03   344.829056E+06       786.026611
             4279     114.9442E+06     -57.4701E+06   -57.470184E+06       139.914764   344.827872E+06       51.5042763
             4280   114.943176E+06   -57.470504E+06   -57.470432E+06      -95.1188889    344.82784E+06      -49.6116257
             4281   114.942312E+06   -57.471436E+06   -57.471248E+06       52.5013161   344.827872E+06      -10.9401989
             4282   114.965224E+06   -57.448468E+06      -57.449E+06  -5.52576025E+03   344.822976E+06       748.312561
             4283   114.929072E+06   -57.477124E+06   -57.479128E+06   5.50314453E+03   344.822656E+06       385.352417
             4284   114.942072E+06   -57.471912E+06   -57.472584E+06  -2.72246069E+03   344.829568E+06   1.42786426E+03
             4285   114.922872E+06   -57.488916E+06   -57.490136E+06       173.000793   344.830784E+06       896.391479
             4286   114.942168E+06    -57.47178E+06   -57.471688E+06      -184.496536   344.828128E+06       162.772278
             4287   114.947328E+06     -57.4696E+06   -57.468316E+06      -493.502197    344.83248E+06       583.526794
             4288   114.924568E+06    -57.48862E+06   -57.488452E+06  -1.50345300E+03   344.831776E+06      -111.692825
             4289   114.953336E+06    -57.45746E+06   -57.457044E+06  -2.04831787E+03   344.823552E+06       631.186707
             4290    114.94632E+06   -57.467952E+06   -57.467504E+06      -674.663574     344.8288E+06      -496.670166
             4291   114.933312E+06   -57.482232E+06   -57.481892E+06   4.88169092E+03   344.828704E+06  -1.10163269E+03
             4292   114.956808E+06   -57.463052E+06   -57.463116E+06       134.366638   344.831104E+06       498.923523
             4293   114.943552E+06   -57.470704E+06   -57.470716E+06       119.455132   344.828224E+06       127.291451
             4294   114.943688E+06     -57.4707E+06   -57.470168E+06       338.863983   344.828736E+06       158.986160
             4295   114.955616E+06    -57.46096E+06   -57.461952E+06   2.39382202E+03   344.828384E+06   1.09924829E+03
             4296   114.945872E+06   -57.468844E+06    -57.46886E+06      -325.710846   344.828096E+06       45.1935959
             4297    114.92008E+06   -57.491632E+06   -57.488948E+06       762.626099   344.831872E+06      -362.637024
             4298   114.956432E+06   -57.457188E+06   -57.455956E+06   1.21075464E+03    344.82336E+06      -616.217896
             4299   114.952816E+06    -57.46574E+06    -57.46326E+06   1.47497083E+03    344.83152E+06      -344.413483
             4300    114.94316E+06   -57.470624E+06   -57.470424E+06      -64.9420929   344.827936E+06      -20.0951118
             4301    114.94276E+06   -57.472404E+06   -57.471616E+06      -439.422119   344.829088E+06      -291.721497
             4302   114.925176E+06   -57.480616E+06    -57.48074E+06   4.38780664E+03     344.8264E+06   1.10581433E+03
             4303   114.934712E+06   -57.480272E+06     -57.4798E+06      -937.407227   344.831264E+06       276.494690
             4304    114.94512E+06    -57.46968E+06    -57.46908E+06      -442.330078   344.828608E+06       546.680237
             4305   114.941288E+06   -57.472388E+06   -57.472428E+06      -275.002228   344.827808E+06      -24.3662605
             4306   114.942648E+06   -57.470736E+06   -57.470648E+06       221.950760   344.827648E+06      -76.6168976
             4307    114.94224E+06   -57.470884E+06   -57.470464E+06       163.083313    344.82768E+06      -66.0488129
             4308   114.943152E+06   -57.470924E+06   -57.470804E+06      -148.829529   344.827776E+06      -139.572510
             4309     114.9442E+06   -57.470104E+06   -57.470116E+06      -42.5436783   344.828032E+06       45.4903069
             4310   114.903952E+06   -57.496768E+06   -57.497144E+06   4.97387354E+03   344.828544E+06   1.90818115E+03
             4311   114.943424E+06   -57.470096E+06   -57.470272E+06       63.3347931    344.82752E+06      -24.9062061
             4312   114.946416E+06   -57.467188E+06   -57.466924E+06       450.662506   344.828096E+06       892.798584
             4313   114.945264E+06   -57.468108E+06   -57.467896E+06       464.049713   344.828064E+06       893.906799
             4314   114.941088E+06    -57.47278E+06   -57.471964E+06      -400.346497    344.82848E+06       36.0050735
             4315   114.941696E+06   -57.473016E+06   -57.472992E+06      -19.9679298    344.82816E+06       496.605988
             4316   114.950152E+06   -57.456644E+06   -57.457564E+06       798.040100      344.824E+06   1.81493726E+03
             4317    114.94412E+06    -57.46974E+06    -57.47026E+06       30.3492813    344.82736E+06      -41.6688309
             4318   114.942168E+06   -57.471904E+06   -57.472152E+06      -72.7671661   344.827904E+06      -224.969940
             4319   114.942952E+06    -57.47208E+06   -57.470928E+06      -153.104477      344.828E+06       19.7050686
             4320   114.949296E+06   -57.467568E+06   -57.471484E+06      -184.768997   344.827744E+06      -646.757751
             4321   114.925696E+06   -57.484484E+06   -57.483988E+06      -123.624100   344.828256E+06       884.783936
             4322   114.946552E+06    -57.46394E+06   -57.466152E+06      -198.454636   344.828256E+06      -963.581482
             4323   114.946504E+06    -57.46736E+06   -57.465896E+06      -104.318489   344.828192E+06  -1.25365283E+03
             4324   114.944472E+06   -57.470596E+06   -57.468828E+06      -312.099609    344.82768E+06      -216.148148
             4325   114.942536E+06    -57.47146E+06     -57.4714E+06      -78.3999329   344.828032E+06      -9.22354221
             4326   114.943304E+06   -57.471112E+06   -57.471072E+06       107.926651   344.828384E+06      -180.104004
             4327   114.943288E+06   -57.469976E+06   -57.470648E+06       415.796326   344.826976E+06      -415.561432
             4328   114.942072E+06    -57.47204E+06   -57.471916E+06      -103.462700   344.827904E+06      -259.054657
             4329   114.942296E+06   -57.473392E+06    -57.47496E+06   3.26169482E+03    344.83056E+06      -495.145325
             4330   114.960344E+06   -57.459072E+06   -57.459204E+06  -1.17287097E+03   344.829568E+06       79.6701965
             4331   114.940376E+06   -57.473508E+06   -57.472636E+06       294.119812   344.827392E+06       350.621521
             4332   114.934272E+06   -57.480964E+06   -57.479188E+06       881.481689   344.830208E+06      -287.900116
             4333   114.936416E+06   -57.476836E+06   -57.477572E+06      -381.716187   344.827584E+06      -583.863586
             4334   114.942824E+06      -57.472E+06   -57.472024E+06       920.606812   344.828544E+06      -220.838898
             4335   114.944576E+06   -57.470684E+06   -57.471004E+06       326.715240   344.829344E+06      -303.609924
             4336   114.995264E+06   -57.425264E+06   -57.423992E+06       628.596924   344.819008E+06       633.327759
             4337   114.944296E+06   -57.469488E+06   -57.469216E+06      -96.3463135   344.827296E+06      -42.1779022
             4338   114.934408E+06   -57.478684E+06   -57.477068E+06  -2.93245044E+03   344.831872E+06       828.556396
             4339   114.939744E+06   -57.476964E+06   -57.480084E+06      -915.396179    344.82752E+06      -920.605652
             4340    114.96156E+06   -57.457968E+06   -57.458852E+06  -1.15371069E+03   344.827968E+06  -1.09347461E+03
             4341   114.940392E+06   -57.473312E+06    -57.47324E+06      -400.140015   344.828512E+06      -618.165344
             4342   114.943688E+06   -57.470444E+06   -57.470544E+06      -216.863083   344.828192E+06       175.825089
             4343   114.946768E+06   -57.467084E+06    -57.46956E+06      -893.662415   344.827712E+06       83.3296051
             4344   114.936208E+06   -57.474704E+06   -57.474616E+06   2.90592871E+03   344.826912E+06   1.19354089E+03
             4345    114.94356E+06   -57.470712E+06   -57.470848E+06       108.443535   344.827968E+06       130.838913
             4346    114.94004E+06   -57.473976E+06   -57.474064E+06       172.261902   344.828544E+06       28.2239609
             4347   114.944888E+06   -57.472996E+06   -57.472708E+06       65.8250732   344.831872E+06       97.1486359
             4348   114.941088E+06    -57.47306E+06   -57.473208E+06      -519.915527   344.828448E+06       80.8476715
             4349   114.946272E+06   -57.468352E+06    -57.46402E+06      -340.200592    344.82672E+06  -1.09264612E+03
             4350   114.965032E+06   -57.449076E+06   -57.447696E+06  -5.34005566E+03   344.827712E+06      -931.706360
             4351   114.938792E+06   -57.475748E+06   -57.476376E+06   1.45444934E+03   344.826688E+06      -237.456055
             4352   114.942248E+06   -57.471648E+06   -57.471612E+06      -291.793793   344.827712E+06       65.9184723
             4353   114.937896E+06   -57.481468E+06   -57.479028E+06       891.644043   344.828128E+06       866.585205
             4354   114.943024E+06      -57.471E+06   -57.470736E+06      -3.39891148   344.828032E+06      -15.6190138
             4355   114.901632E+06   -57.506884E+06     -57.5076E+06  -2.70033081E+03     344.8304E+06   1.00078217E+03
             4356   114.974976E+06   -57.445168E+06   -57.443956E+06  -2.41457495E+03   344.825088E+06       439.019409
             4357    114.92448E+06    -57.48102E+06   -57.481944E+06      -663.868713   344.826016E+06       35.8200455
             4358   114.897144E+06   -57.512632E+06   -57.513332E+06        308.15625    344.83712E+06      -684.846741
             4359   114.944528E+06    -57.46754E+06   -57.470552E+06       802.760132     344.8272E+06      -258.945740
             4360   114.941136E+06   -57.472652E+06   -57.472728E+06       242.336670   344.828384E+06       62.2480736
             4361    114.94108E+06     -57.4722E+06   -57.474996E+06       962.263184   344.827328E+06       935.300720
             4362   114.941224E+06   -57.472544E+06   -57.472908E+06       283.588440   344.827712E+06       109.969696
             4363   114.959024E+06   -57.455092E+06   -57.454644E+06   1.99091174E+03   344.826144E+06       110.505135
             4364   114.933528E+06   -57.478628E+06   -57.480544E+06  -3.60093774E+03   344.826624E+06      -850.432251
             4365   114.945768E+06     -57.4722E+06    -57.47246E+06      -505.603607    344.82832E+06      -101.064140
             4366    114.94036E+06    -57.47028E+06   -57.468652E+06       507.348633   344.827136E+06       875.197876
             4367   114.925744E+06    -57.48582E+06   -57.485488E+06   -5.5895625E+03    344.83152E+06       139.087204
             4368   114.942752E+06   -57.471012E+06   -57.471156E+06      -101.800934   344.827488E+06      -140.556259
             4369   114.941704E+06   -57.473056E+06   -57.474544E+06      -485.462189   344.828576E+06      -52.2348442
             4370   114.942328E+06   -57.471636E+06   -57.471848E+06      -14.9813766   344.828064E+06       95.8171692
             4371    114.96004E+06   -57.454764E+06   -57.455296E+06   2.47848926E+03   344.828352E+06      -76.1818848
             4372   114.942152E+06   -57.471024E+06   -57.471236E+06       95.9925385    344.82736E+06       264.763123
             4373   114.949648E+06   -57.465316E+06    -57.46238E+06      -392.948181   344.826432E+06      -367.174347
             4374   114.959704E+06     -57.4565E+06   -57.458072E+06  -3.07622949E+03   344.827136E+06  -1.23635181E+03
             4375       114.95E+06   -57.465248E+06     -57.4685E+06   1.47661243E+03   344.826816E+06      -781.736023
             4376   114.928528E+06    -57.48756E+06   -57.485544E+06   5.59389502E+03   344.828096E+06   1.41327576E+03
             4377   114.943104E+06   -57.471064E+06   -57.471096E+06       151.644272   344.827904E+06      -32.1688232
             4378   114.942832E+06   -57.471344E+06   -57.470908E+06      -142.320923    344.82864E+06       122.881378
             4379   114.943208E+06    -57.47104E+06   -57.470976E+06      -297.056641    344.82784E+06       98.5190735
             4380   114.948168E+06     -57.4585E+06   -57.459308E+06  -2.85313916E+03    344.82288E+06      -309.416382
             4381   114.943608E+06   -57.470428E+06    -57.47028E+06      -42.6223145   344.827808E+06      -63.2839394
             4382   114.940024E+06   -57.473356E+06   -57.474192E+06       461.067078    344.82784E+06       483.903076
             4383   114.949752E+06    -57.46948E+06   -57.466872E+06   2.80491968E+03    344.83024E+06       533.958435
             4384   114.943048E+06   -57.471196E+06   -57.472704E+06      -516.633606   344.827776E+06      -862.554199
             4385   114.944664E+06   -57.469804E+06   -57.469608E+06      -121.201271   344.828064E+06       35.7745705
             4386   114.865312E+06   -57.538288E+06   -57.538276E+06  -1.87934412E+03    344.83584E+06      -405.428162
             4387   114.947464E+06   -57.468208E+06     -57.4696E+06      -717.467651   344.827456E+06       388.457916
             4388   114.951024E+06   -57.464716E+06    -57.46556E+06      -74.9754868   344.830784E+06      -775.216553
             4389   114.960496E+06   -57.454116E+06   -57.453248E+06      -513.854736   344.825248E+06       865.993652
             4390   114.941416E+06   -57.472284E+06    -57.47192E+06      -199.354675   344.828096E+06      -32.6582108
             4391   114.942824E+06    -57.47128E+06    -57.47114E+06       159.472137   344.827936E+06      -164.276260
             4392   114.944032E+06   -57.470588E+06   -57.470372E+06      -66.2770920   344.827776E+06       96.4822083
             4393    114.94352E+06   -57.470476E+06    -57.47034E+06      -250.939270   344.827328E+06       19.9870338
             4394   114.950152E+06   -57.463972E+06     -57.4624E+06      -277.604095   344.827808E+06       105.245087
             4395   114.978488E+06    -57.43826E+06    -57.43802E+06   3.43767285E+03   344.820416E+06       408.520233
             4396   114.943864E+06    -57.47028E+06   -57.470072E+06      -53.6033897   344.827872E+06      -46.9731750
             4397    114.93572E+06   -57.478744E+06    -57.47766E+06   1.58912451E+03   344.828864E+06   1.04921912E+03
             4398   114.942304E+06   -57.470548E+06     -57.4725E+06   3.44797021E+03   344.826784E+06      -389.829681
             4399   114.953072E+06     -57.4641E+06     -57.4642E+06       720.208618   344.828096E+06       319.630432
             4400   114.942008E+06   -57.471556E+06     -57.4721E+06       181.374802   344.827648E+06      -174.679596
             4401    114.96976E+06   -57.442148E+06   -57.442408E+06       107.972816   344.820832E+06       403.703308
             4402     114.9426E+06   -57.470796E+06   -57.469876E+06      -173.008179   344.827776E+06      -274.931366
             4403   114.944312E+06   -57.470248E+06   -57.469832E+06       19.2044754   344.827808E+06       75.2340622
             4404   114.943336E+06   -57.470696E+06   -57.470564E+06      -84.4397659   344.827936E+06      -89.3462067
             4405   114.941912E+06   -57.472188E+06   -57.471932E+06      -47.6865959   344.827904E+06      -80.9114609
             4406   114.943048E+06   -57.471292E+06   -57.470948E+06       104.479889   344.827712E+06       35.4805222
             4407   114.943784E+06   -57.470788E+06   -57.470656E+06       222.916855   344.827936E+06       39.4164963
             4408   114.941976E+06   -57.472056E+06   -57.471896E+06       53.7075615   344.828032E+06      -204.065567
             4409   114.944536E+06   -57.470228E+06   -57.470084E+06       222.937469   344.827872E+06       16.7719193
             4410   114.943184E+06   -57.470608E+06   -57.470824E+06       30.0929699   344.827808E+06      -139.422394
             4411   114.942944E+06   -57.471452E+06   -57.471036E+06       38.8816757   344.827968E+06      -38.4617653
             4412   114.942032E+06   -57.472572E+06   -57.472332E+06      -408.704132    344.82816E+06      -73.8689575
             4413   114.942864E+06    -57.47108E+06   -57.471068E+06       89.8987808   344.827872E+06      -34.5873032
             4414   114.941904E+06   -57.472232E+06   -57.471648E+06      -117.682144   344.828672E+06      -285.338654
             4415   114.939232E+06   -57.474344E+06    -57.47434E+06       184.533630    344.82688E+06       355.447845
             4416   114.937672E+06   -57.475252E+06   -57.476268E+06  -1.01108252E+03   344.828224E+06      -45.8856316
             4417   114.919376E+06   -57.491224E+06   -57.491824E+06  -3.06937305E+03   344.829632E+06       94.0084686
             4418    114.96704E+06   -57.451676E+06   -57.452264E+06  -2.64318115E+03    344.82608E+06      -249.034271
             4419   114.949464E+06   -57.465488E+06    -57.46634E+06      -812.416016   344.826848E+06       374.437775
             4420     114.9348E+06   -57.479076E+06   -57.477312E+06  -1.44398755E+03    344.82768E+06      -195.560043
             4421   114.961264E+06   -57.455944E+06   -57.455372E+06      -36.9589119   344.824864E+06      -339.736572
             4422   114.945192E+06   -57.467584E+06   -57.468436E+06       393.354828    344.82736E+06       488.790527
             4423   114.924544E+06   -57.481488E+06   -57.483092E+06   10.3110420E+03   344.823264E+06   1.14998450E+03
             4424   114.944312E+06   -57.471828E+06   -57.471824E+06      -292.523834   344.827968E+06      -809.973694
             4425   114.940672E+06    -57.47388E+06    -57.47454E+06      -954.739136   344.828768E+06       451.298981
             4426    114.94604E+06   -57.469232E+06   -57.471072E+06       112.592979   344.828768E+06      -288.222778
             4427   114.943768E+06    -57.47072E+06   -57.470536E+06      -508.107544   344.828192E+06      -14.8441210
             4428   114.944192E+06    -57.47032E+06   -57.470168E+06       376.932220   344.828128E+06      -64.1648941
             4429   114.943112E+06   -57.468684E+06   -57.469132E+06      -506.778046   344.826464E+06      -414.489746
             4430   114.947312E+06   -57.462192E+06   -57.462916E+06   2.93792187E+03   344.828896E+06       135.338593
             4431   114.947128E+06   -57.468184E+06   -57.468956E+06      -183.143784   344.827136E+06      -273.585938
             4432   114.936496E+06   -57.478728E+06   -57.479328E+06  -1.36111401E+03   344.828032E+06  -1.33001758E+03
             4433   114.940848E+06   -57.472672E+06   -57.473408E+06       599.882080   344.827968E+06       193.942810
             4434    114.94024E+06   -57.474748E+06   -57.475512E+06  -1.23820056E+03   344.827168E+06  -1.95242053E+03
             4435   114.946856E+06   -57.466872E+06   -57.467472E+06   1.11202661E+03    344.82784E+06       134.206482
             4436   114.934552E+06   -57.478944E+06   -57.478904E+06  -2.50688013E+03    344.82896E+06      -486.787445
             4437   114.937584E+06   -57.478412E+06    -57.47788E+06   1.22455164E+03   344.830304E+06      -456.024719
             4438   114.947864E+06   -57.466608E+06   -57.468076E+06       80.8047180   344.825408E+06       388.931549
             4439   114.942512E+06    -57.47096E+06   -57.471044E+06       49.4059258   344.827328E+06      -16.5887394
             4440    114.93372E+06       -57.48E+06   -57.478732E+06      -255.151703   344.828544E+06      -382.841064
             4441   114.938856E+06    -57.47472E+06    -57.47462E+06      -170.501862    344.82832E+06       144.363235
             4442   114.943104E+06   -57.469416E+06   -57.470952E+06       492.756744     344.8272E+06       280.784790
             4443   114.935208E+06     -57.4753E+06   -57.475632E+06      -126.660881   344.829024E+06       192.868164
             4444   114.938856E+06   -57.475196E+06   -57.478808E+06       440.133484   344.831776E+06       870.929688
             4445   114.942328E+06   -57.470956E+06   -57.471468E+06      -130.639359   344.827232E+06      -94.4596329
             4446   114.941968E+06   -57.472044E+06   -57.472708E+06       61.9688683   344.827808E+06       53.6802444
             4447   114.943488E+06   -57.470892E+06     -57.4705E+06       452.968719   344.826944E+06       117.045265
             4448   114.943256E+06     -57.4708E+06   -57.470968E+06       131.538895   344.828128E+06      -5.05376720
             4449    114.94316E+06   -57.470996E+06   -57.470992E+06       184.009430   344.828032E+06       117.220947
             4450   114.942848E+06      -57.471E+06   -57.470984E+06      -4.34454203   344.827936E+06       149.823593
             4451   114.945008E+06   -57.469512E+06    -57.46992E+06       127.275948   344.828128E+06      -119.963539
             4452   114.939384E+06   -57.474708E+06    -57.47442E+06       532.247253   344.827968E+06       230.040390
             4453   114.941056E+06   -57.472904E+06   -57.472604E+06      -78.4353561   344.828128E+06      -40.5943222
             4454   114.942728E+06   -57.471472E+06   -57.471484E+06       40.5231552   344.827936E+06      -45.2274361
             4455   114.942952E+06   -57.470996E+06   -57.471048E+06      -56.0966797      344.828E+06      -120.759148
             4456   114.946064E+06   -57.468664E+06    -57.46866E+06       223.570129   344.828224E+06       141.312042
             4457   114.938608E+06   -57.472436E+06   -57.474708E+06   3.47741943E+03   344.830048E+06      -830.605103
             4458   114.937808E+06   -57.473088E+06   -57.473984E+06   1.04013818E+03   344.827552E+06       107.670609
             4459   114.944432E+06   -57.469556E+06   -57.469444E+06       178.153046   344.827808E+06      -91.2568741
             4460     114.9424E+06   -57.471484E+06   -57.471496E+06       102.839577      344.828E+06      -98.0018387
             4461    114.94312E+06   -57.470904E+06    -57.47098E+06       19.6792240   344.827904E+06      -20.1826839
             4462   114.947296E+06   -57.466752E+06   -57.466452E+06      -421.528259    344.82768E+06       170.905334
             4463   114.942792E+06   -57.470268E+06    -57.46938E+06      -482.952362   344.827168E+06  -1.55994470E+03
             4464   114.943432E+06   -57.471876E+06   -57.472472E+06      -546.636902   344.828288E+06      -827.928162
             4465   114.960544E+06   -57.448776E+06   -57.445432E+06  -1.08648767E+03     344.8232E+06      -114.925735
             4466     114.9454E+06    -57.46894E+06   -57.469268E+06      -258.042969     344.8272E+06      -302.624298
             4467    114.94668E+06   -57.467256E+06   -57.467488E+06       343.209808    344.82784E+06   1.43884741E+03
             4468    114.94276E+06   -57.471076E+06   -57.470792E+06       21.3906155   344.827872E+06       178.794235
             4469    114.94764E+06   -57.465248E+06   -57.466708E+06      -320.252533   344.827456E+06      -307.925323
             4470   114.962168E+06   -57.454836E+06   -57.454476E+06       451.332764    344.82496E+06      -243.067215
             4471   114.945688E+06   -57.466128E+06   -57.469048E+06      -57.4783592    344.82752E+06       103.012611
             4472   114.944752E+06   -57.469044E+06   -57.469764E+06       457.517578   344.827296E+06       401.374207
             4473   114.932656E+06   -57.476728E+06   -57.477084E+06  -2.27398315E+03   344.823968E+06      -141.088196
             4474     114.9418E+06   -57.471776E+06   -57.471668E+06      -617.304321    344.82784E+06       62.8489227
             4475    114.94852E+06   -57.468272E+06   -57.466392E+06   2.50443311E+03   344.827616E+06       179.433624
             4476    114.93536E+06   -57.478216E+06   -57.481184E+06       733.509216   344.827456E+06      -682.776978
             4477   114.940376E+06   -57.473676E+06   -57.472752E+06      -991.999634   344.827104E+06      -485.051880
             4478   114.943184E+06   -57.471184E+06   -57.471472E+06       145.048111      344.828E+06      -132.944763
             4479   114.922688E+06   -57.487128E+06   -57.488604E+06  -2.80330737E+03   344.829504E+06  -1.08812683E+03
             4480   114.940184E+06   -57.475616E+06    -57.47656E+06  -1.17791797E+03   344.829504E+06      -152.889481
             4481   114.949992E+06   -57.469824E+06    -57.46632E+06       880.540588   344.830016E+06  -1.84401025E+03
             4482     114.9166E+06   -57.494048E+06   -57.491836E+06       592.448120   344.832832E+06       12.9452267
             4483    114.95928E+06   -57.456192E+06   -57.455016E+06  -2.86448291E+03   344.823744E+06      -848.460144
             4484   114.969776E+06   -57.445272E+06    -57.44698E+06  -3.55632446E+03   344.820768E+06       914.248962
             4485    114.99196E+06   -57.428256E+06   -57.429368E+06  -2.13315503E+03   344.820576E+06       883.702271
             4486   114.947016E+06    -57.46282E+06   -57.461248E+06   1.30067236E+03   344.823904E+06      -628.036743
             4487   114.893152E+06   -57.509888E+06   -57.514068E+06   3.75329004E+03   344.834048E+06   1.27253394E+03
             4488   114.942064E+06   -57.471396E+06   -57.471724E+06      -384.998932   344.827904E+06       184.973145
             4489   114.940672E+06    -57.47186E+06   -57.472484E+06      -417.027527   344.828256E+06      -784.275391
             4490    114.95348E+06   -57.463376E+06   -57.464468E+06   2.14222559E+03   344.826976E+06      -774.842285
             4491   114.959256E+06   -57.460644E+06   -57.460512E+06   1.15518835E+03   344.828608E+06      -611.535339
             4492   114.940336E+06   -57.470964E+06   -57.469692E+06       197.620895   344.827744E+06       838.034485
             4493   114.939464E+06   -57.474392E+06   -57.474052E+06       34.0622826   344.828544E+06      -163.621933
             4494   114.944656E+06     -57.4698E+06     -57.4697E+06      -136.999252   344.827904E+06      -18.7193279
             4495   114.943144E+06   -57.470496E+06   -57.470692E+06       314.344177    344.82784E+06       142.777267
             4496   114.941536E+06   -57.471608E+06   -57.471956E+06       192.088379   344.827648E+06       149.481277
             4497   114.948832E+06   -57.463516E+06   -57.465816E+06       302.660248   344.826752E+06      -24.0078945
             4498    114.94208E+06     -57.4714E+06   -57.471508E+06       150.855225   344.827776E+06       19.8257484
             4499   114.943032E+06   -57.470972E+06   -57.470784E+06       153.300079   344.827936E+06       62.7422447
             4500    114.94408E+06    -57.46934E+06   -57.469484E+06       222.575821   344.827808E+06      -51.8667068
             4501   114.941512E+06    -57.47178E+06   -57.471728E+06      -115.390358   344.827584E+06       60.7538071
             4502   114.942352E+06   -57.471712E+06   -57.471492E+06       86.8542099      344.828E+06       69.9064484
             4503   114.940112E+06     -57.4736E+06   -57.473792E+06      -33.0665321   344.828576E+06      -98.1505051
             4504   114.943816E+06   -57.470096E+06   -57.469964E+06      -104.669388   344.827936E+06      -214.151276
             4505   114.943288E+06   -57.471504E+06   -57.471304E+06       47.2332306   344.828128E+06       282.002289
             4506   114.943152E+06   -57.469808E+06   -57.470568E+06       68.9061737   344.827872E+06      -342.209839
             4507   114.938912E+06   -57.472648E+06   -57.472508E+06  -2.69818286E+03    344.82608E+06       103.849693
             4508   114.943408E+06    -57.47076E+06   -57.470348E+06      -3.02240872   344.827904E+06      -37.8475685
             4509    114.94304E+06   -57.470888E+06   -57.471016E+06      -56.3465195   344.828032E+06      -183.711075
             4510   114.944904E+06   -57.469692E+06   -57.469804E+06      -287.033264    344.82784E+06       112.549660
             4511   114.945952E+06   -57.467248E+06    -57.46532E+06       374.375244    344.82784E+06   1.03599890E+03
             4512   114.941608E+06    -57.47264E+06   -57.472776E+06      -14.5438395    344.82816E+06      -396.347229
             4513   114.941824E+06   -57.471764E+06   -57.471988E+06      -167.504456   344.827712E+06       155.815262
             4514   114.943256E+06   -57.473956E+06   -57.473044E+06  -1.15155005E+03   344.829344E+06       610.411011
             4515   114.968032E+06   -57.451704E+06   -57.451632E+06   3.48562354E+03   344.823392E+06  -1.33752539E+03
             4516    114.94216E+06   -57.471808E+06   -57.471808E+06      -212.865753   344.827648E+06       192.544083
             4517   114.941992E+06   -57.471896E+06    -57.47148E+06      -114.623749      344.828E+06      -63.8208923
             4518    114.94868E+06   -57.466964E+06    -57.46736E+06  -1.19102808E+03   344.827264E+06      -297.990387
             4519   114.944176E+06   -57.469852E+06   -57.469896E+06      -159.375977   344.827808E+06       98.5492477
             4520     114.9436E+06   -57.470164E+06   -57.470208E+06      -141.997208   344.828064E+06      -78.3567429
             4521   114.944144E+06   -57.472968E+06     -57.4734E+06      -698.979126   344.829152E+06  -1.80236768E+03
             4522    114.94032E+06    -57.47308E+06   -57.472848E+06      -287.182617   344.828096E+06      -144.808578
             4523   114.943624E+06   -57.470716E+06    -57.47074E+06      -199.294998    344.82832E+06      -55.7037926
             4524   114.941672E+06   -57.472264E+06   -57.473296E+06       29.0375519    344.82784E+06      -288.398773
             4525    114.94396E+06    -57.47162E+06   -57.472448E+06      -142.194107   344.828448E+06       623.117676
             4526   114.943376E+06   -57.470808E+06   -57.470716E+06      -66.4831924   344.827904E+06      -220.935074
             4527   114.945112E+06     -57.4683E+06   -57.468096E+06      -456.327454   344.825216E+06      -474.211884
             4528   114.942552E+06   -57.471708E+06   -57.472172E+06      -335.526093   344.828064E+06       267.088684
             4529   114.942584E+06   -57.471396E+06    -57.47098E+06      -74.3060684    344.82816E+06      -169.530975
             4530    114.94228E+06   -57.471684E+06   -57.471644E+06       61.5709915    344.82816E+06      -38.6279984
             4531   114.935056E+06   -57.478572E+06   -57.477816E+06   1.45883582E+03   344.828544E+06       734.021423
             4532   114.943144E+06   -57.470736E+06    -57.47068E+06       289.854980      344.828E+06      -10.8038359
             4533      114.943E+06   -57.470744E+06   -57.470708E+06       32.9702148   344.827744E+06      -122.265228
             4534   114.943336E+06    -57.47038E+06    -57.47042E+06       151.910858    344.82768E+06      -79.3800430
             4535   114.942408E+06   -57.471868E+06   -57.471508E+06      -97.1769714   344.828032E+06      -56.5004311
             4536   114.942416E+06    -57.47144E+06   -57.471432E+06      -30.5419617   344.827744E+06       155.869720
             4537   114.942152E+06    -57.47166E+06   -57.471332E+06      -59.7539291    344.82768E+06       12.4693365
             4538   114.943608E+06    -57.46966E+06   -57.469884E+06      -285.092987   344.828032E+06      -129.119781
             4539    114.94632E+06   -57.466868E+06   -57.466512E+06      -162.788437   344.827552E+06       290.562714
             4540   114.942256E+06   -57.471516E+06   -57.471304E+06      -646.757507   344.827232E+06       63.2902718
             4541   114.945344E+06   -57.468688E+06   -57.468636E+06      -253.020203   344.827264E+06       171.969788
             4542   114.941992E+06   -57.471948E+06   -57.471508E+06      -17.4574490   344.828128E+06       56.0371780
             4543   114.943704E+06   -57.470456E+06   -57.470224E+06      -321.463043   344.828064E+06       96.3406525
             4544    114.94184E+06   -57.472624E+06    -57.47262E+06      -110.392189   344.828736E+06      -50.6202087
             4545    114.94216E+06   -57.473592E+06   -57.472672E+06  -1.32646997E+03   344.829056E+06      -884.349609
             4546   114.933096E+06   -57.481408E+06     -57.4847E+06       193.421967   344.828896E+06   1.36502625E+03
             4547     114.9492E+06   -57.469132E+06   -57.469104E+06  -3.17438745E+03     344.8288E+06  -1.08759131E+03
             4548    114.94732E+06   -57.470112E+06   -57.470192E+06       206.376572   344.827904E+06      -659.430908
             4549   114.954064E+06   -57.459972E+06   -57.461912E+06  -1.11303284E+03    344.82544E+06      -587.212219
             4550    114.93144E+06   -57.481904E+06   -57.484136E+06  -2.95494995E+03   344.829472E+06      -310.077209
             4551   114.951776E+06   -57.462772E+06   -57.462792E+06  -1.77992590E+03   344.826432E+06       164.392593
             4552     114.9438E+06   -57.469888E+06   -57.469252E+06       213.584610   344.827744E+06       82.0386353
             4553    114.92128E+06   -57.489052E+06   -57.489124E+06   4.12951807E+03   344.829344E+06      -76.2081299
             4554   114.942496E+06   -57.471176E+06   -57.471072E+06       61.0376968    344.82768E+06       18.4633255
             4555   114.943768E+06    -57.47026E+06   -57.470588E+06      -781.394653   344.827872E+06      -127.677689
             4556    114.93976E+06   -57.472548E+06   -57.473576E+06      -230.447388   344.826976E+06      -255.160904
             4557   114.941968E+06    -57.47004E+06   -57.468796E+06      -154.504349   344.826784E+06       47.5664482
             4558    114.94472E+06   -57.469524E+06   -57.469308E+06      -255.020721     344.8272E+06      -188.205215
             4559   114.969808E+06   -57.450372E+06   -57.451984E+06   6.04135205E+03   344.825056E+06  -1.50151477E+03
             4560    114.94148E+06   -57.474264E+06    -57.47494E+06      -697.004578     344.8296E+06      -170.256348
             4561   114.955328E+06   -57.464156E+06   -57.465832E+06   2.13214087E+03   344.826528E+06       184.770416
             4562    114.94164E+06   -57.472224E+06   -57.471808E+06       40.1813812      344.828E+06       45.6630173
             4563   114.971768E+06   -57.449764E+06   -57.452368E+06   4.02339624E+03   344.826592E+06       576.258545
             4564   114.941816E+06   -57.471824E+06    -57.47086E+06       302.343414   344.828736E+06       272.408447
             4565   114.923288E+06    -57.48972E+06   -57.488504E+06   2.75974951E+03    344.83072E+06      -467.184753
             4566   114.944576E+06     -57.4689E+06   -57.469964E+06   1.68075500E+03   344.828544E+06      -891.703491
             4567   114.936968E+06   -57.478672E+06    -57.47838E+06  -2.39330103E+03   344.828064E+06      -386.307281
             4568   114.945504E+06   -57.468672E+06   -57.469036E+06      -656.240356   344.827648E+06      -131.838272
             4569   114.941112E+06   -57.471904E+06   -57.469872E+06  -1.70362048E+03   344.827264E+06      -601.290283
             4570   114.953704E+06   -57.461456E+06   -57.461348E+06      -464.098907   344.828128E+06      -915.832214
             4571   114.943096E+06    -57.47008E+06   -57.471012E+06      -303.557404   344.827392E+06      -263.746277
             4572   114.942216E+06   -57.471544E+06   -57.471372E+06       100.165764   344.827712E+06       17.9052868
             4573   114.943944E+06   -57.470284E+06   -57.469964E+06      -393.604126   344.827936E+06       19.2105408
             4574    114.93124E+06   -57.481932E+06   -57.483112E+06   2.50185864E+03   344.830208E+06       384.577362
             4575    114.91736E+06   -57.493136E+06   -57.492068E+06   2.57086060E+03   344.830272E+06       48.4097214
             4576   114.945728E+06   -57.465888E+06   -57.466732E+06       77.3350525   344.824832E+06      -341.262695
             4577   114.944488E+06    -57.46972E+06   -57.470536E+06       410.984497   344.827936E+06      -616.573059
             4578   114.953288E+06   -57.462892E+06    -57.46252E+06   1.03491492E+03   344.828096E+06       31.4864330
             4579   114.942376E+06   -57.471612E+06   -57.471652E+06       101.240898   344.827936E+06       56.8174515
             4580    114.94392E+06   -57.472204E+06    -57.47062E+06       185.392181   344.827936E+06      -645.733826
             4581   114.943896E+06   -57.470732E+06   -57.470868E+06      -638.080261   344.828288E+06      -332.215454
             4582    114.94224E+06   -57.471224E+06    -57.47106E+06       127.086182   344.827488E+06       75.5319214
             4583   114.941808E+06   -57.472012E+06   -57.471852E+06      -430.791504   344.827808E+06       3.16259527
             4584   114.940072E+06   -57.470948E+06   -57.471708E+06       93.0545120   344.826336E+06   1.28202759E+03
             4585   114.937864E+06   -57.476912E+06   -57.475916E+06       474.103088   344.828128E+06      -277.489960
             4586   114.941664E+06   -57.471988E+06   -57.471384E+06       365.759125   344.828128E+06       44.1522446
             4587   114.941128E+06   -57.473532E+06   -57.472748E+06       91.3190308   344.828448E+06      -524.960388
             4588   114.941952E+06   -57.471888E+06   -57.471972E+06       372.509399    344.82816E+06      -179.778198
             4589   114.949528E+06   -57.467812E+06    -57.46836E+06   1.40002698E+03   344.829952E+06      -564.550415
             4590   114.945104E+06    -57.47118E+06   -57.471612E+06   1.05190955E+03   344.828224E+06       213.023544
             4591    114.94072E+06   -57.473584E+06   -57.473272E+06      -482.690369   344.828384E+06      -409.903687
             4592   114.942944E+06    -57.47074E+06   -57.470044E+06      -165.216217   344.828352E+06       939.180420
             4593    114.94308E+06   -57.471836E+06   -57.471488E+06      -276.708862   344.828288E+06       160.557480
             4594    114.94052E+06   -57.472856E+06   -57.472872E+06       92.6594925   344.827744E+06       145.222610
             4595   114.943344E+06   -57.470404E+06    -57.47056E+06       28.1852303    344.82784E+06      -61.5943680
             4596   114.947024E+06   -57.465684E+06    -57.46822E+06   1.58944080E+03   344.828032E+06       220.818115
             4597   114.946536E+06   -57.469004E+06   -57.468248E+06  -1.36381189E+03    344.82688E+06      -223.683426
             4598   114.937248E+06   -57.474608E+06   -57.475292E+06  -1.95699194E+03   344.827904E+06  -1.22842285E+03
             4599   114.949232E+06   -57.465728E+06   -57.466032E+06      -597.296631   344.827264E+06      -153.763718
             4600    114.94276E+06   -57.471104E+06    -57.47146E+06      -350.820465   344.827776E+06      -270.690369
             4601   114.941904E+06   -57.471736E+06   -57.471784E+06       153.951462   344.827904E+06      -104.588768
             4602   114.948024E+06   -57.465832E+06   -57.465096E+06       483.471588   344.826272E+06       157.617203
             4603   114.943136E+06   -57.470508E+06   -57.469912E+06      -170.265518   344.827744E+06       22.9177685
             4604   114.942896E+06    -57.46916E+06   -57.469016E+06       368.187683   344.827456E+06       697.595642
             4605    114.93776E+06   -57.476548E+06   -57.477352E+06  -1.09296326E+03    344.83024E+06  -1.16785522E+03
             4606   114.956784E+06   -57.462716E+06   -57.462724E+06  -1.25649158E+03   344.827904E+06      -303.110626
             4607   114.948888E+06   -57.469564E+06   -57.469336E+06       746.638367   344.827744E+06      -956.273254
             4608   114.942696E+06   -57.471236E+06   -57.470984E+06       12.6878223   344.828064E+06      -92.5215302
             4609   114.944848E+06    -57.47196E+06   -57.472708E+06      -53.0428200   344.827552E+06       183.665985
             4610    114.94304E+06   -57.470468E+06   -57.470484E+06      -164.649414   344.828128E+06       43.9192009
             4611   114.943824E+06   -57.469712E+06   -57.470176E+06      -903.621826   344.827712E+06       153.935699
             4612   114.956472E+06    -57.46002E+06    -57.45948E+06   5.43822559E+03   344.826112E+06      -216.708405
             4613   114.923832E+06   -57.485556E+06    -57.48572E+06       100.136131   344.827008E+06      -178.516190
             4614   114.937784E+06   -57.475292E+06    -57.47588E+06      -311.724121   344.827392E+06       655.316223
             4615   114.953568E+06    -57.46178E+06   -57.463452E+06      -228.100433   344.828384E+06      -371.534119
             4616   114.938536E+06   -57.473744E+06      -57.475E+06  -1.28789294E+03   344.827456E+06  -1.50095361E+03
             4617    114.94264E+06    -57.47152E+06   -57.471456E+06       11.1647434   344.827936E+06      -103.505470
             4618    114.94276E+06   -57.471048E+06   -57.470792E+06       356.027954   344.828288E+06      -22.9331875
             4619   114.941728E+06   -57.472616E+06   -57.473036E+06       99.3223724   344.828352E+06       165.057510
             4620   114.948288E+06   -57.473352E+06    -57.47264E+06  -2.86240161E+03    344.82944E+06       119.766663
             4621   114.938168E+06   -57.472096E+06   -57.473064E+06      -900.726257   344.827584E+06       362.745819
             4622   114.939664E+06   -57.473916E+06   -57.472616E+06      -687.980896    344.82816E+06      -225.311325
             4623   114.945784E+06   -57.469524E+06   -57.470184E+06       197.142410      344.828E+06       247.646866
             4624   114.942232E+06   -57.472012E+06    -57.47092E+06       219.349121   344.828864E+06      -774.490295
             4625   114.945808E+06   -57.469096E+06   -57.469948E+06       587.428223   344.828928E+06       711.357117
             4626   114.961336E+06     -57.4605E+06   -57.460916E+06   3.67852051E+03    344.82976E+06       819.119263
             4627    114.94144E+06    -57.47288E+06    -57.47274E+06       841.333435   344.826336E+06       871.997803
             4628   114.946128E+06   -57.468276E+06   -57.468544E+06      -230.767197   344.827264E+06      -27.6086178
             4629    114.94128E+06   -57.473528E+06   -57.473764E+06      -975.586731     344.8296E+06       628.737488
             4630   114.950808E+06   -57.462848E+06   -57.460356E+06  -1.78762671E+03   344.829312E+06  -1.71630261E+03
             4631    114.95476E+06   -57.459316E+06   -57.457912E+06       651.842834     344.8272E+06       332.153259
             4632    114.93812E+06   -57.471716E+06    -57.47272E+06      -938.227173   344.828704E+06   1.91365747E+03
             4633   114.939192E+06   -57.473276E+06   -57.473744E+06      -122.378174   344.827136E+06      -52.9448929
             4634   114.946664E+06   -57.468344E+06   -57.468332E+06      -131.716827   344.827456E+06      -307.051025
             4635   114.965968E+06   -57.453168E+06    -57.45206E+06  -1.37016418E+03   344.826144E+06       328.615417
             4636   114.933424E+06   -57.476032E+06   -57.480336E+06   1.04048022E+03    344.83088E+06   1.80907910E+03
             4637     114.9406E+06   -57.473452E+06   -57.473476E+06       996.402954   344.828064E+06       302.414032
             4638   114.944512E+06    -57.47076E+06   -57.471152E+06  -5.02208740E+03   344.826304E+06       465.020325
             4639   114.942464E+06    -57.47138E+06   -57.470984E+06      -125.986725      344.828E+06      -204.705322
             4640   114.936224E+06   -57.477728E+06   -57.480244E+06      -139.981567   344.828064E+06       138.863434
             4641   114.942288E+06   -57.472112E+06   -57.472352E+06      -195.547577    344.82848E+06      -111.025711
             4642   114.941448E+06   -57.471908E+06   -57.471736E+06      -328.953491   344.827456E+06      -41.0889473
             4643   114.939528E+06    -57.47432E+06    -57.47478E+06      -353.511810   344.828512E+06       368.049194
             4644   114.945568E+06    -57.46954E+06   -57.469748E+06      -522.031616    344.82816E+06       210.122360
             4645   114.946752E+06   -57.467588E+06    -57.46704E+06       134.635880   344.827296E+06      -892.817444
             4646   114.936504E+06   -57.476968E+06   -57.477324E+06      -347.298401   344.828608E+06      -185.457001
             4647   114.940936E+06    -57.47338E+06   -57.473064E+06      -340.692322   344.828448E+06       58.5030403
             4648    114.94728E+06   -57.467748E+06   -57.468384E+06  -3.15517603E+03   344.826112E+06       266.078949
             4649   114.941552E+06    -57.47156E+06   -57.471952E+06      -631.265442   344.826848E+06      -217.317886
             4650   114.946984E+06   -57.465736E+06   -57.468096E+06       662.352356   344.825184E+06      -770.809814
             4651   114.943592E+06   -57.470992E+06   -57.470784E+06       196.456497    344.82848E+06      -62.6202965
             4652   114.943776E+06    -57.47036E+06   -57.470536E+06       127.451332   344.828096E+06       142.877640
             4653   114.944648E+06    -57.46986E+06   -57.470112E+06      -53.9607658   344.827808E+06       134.663361
             4654   114.942856E+06   -57.470932E+06   -57.470924E+06       210.301346   344.827904E+06       65.4663696
             4655   114.944408E+06   -57.469152E+06   -57.471724E+06       148.741898   344.827264E+06       309.848816
             4656   114.964968E+06   -57.445836E+06   -57.445672E+06  -4.10207471E+03   344.821632E+06      -71.3144684
             4657   114.941288E+06   -57.472368E+06   -57.472512E+06      -211.034424   344.828192E+06       18.7989216
             4658   114.941408E+06   -57.472268E+06   -57.472196E+06       92.2583847   344.828032E+06       73.3061142
             4659   114.996792E+06   -57.436036E+06   -57.432536E+06       831.626160   344.830272E+06       231.228470
             4660   114.938664E+06   -57.474752E+06   -57.474072E+06       19.4448681   344.828256E+06       507.383545
             4661   114.943072E+06    -57.47066E+06   -57.470784E+06       57.9946823   344.827776E+06       21.1064167
             4662   114.945272E+06   -57.468988E+06   -57.468852E+06       195.616516   344.827552E+06       257.341919
             4663   114.943608E+06   -57.470324E+06   -57.470272E+06      -7.70733786   344.827904E+06      -8.92865181
             4664    114.94224E+06   -57.471908E+06   -57.472224E+06      -111.159096   344.827904E+06      -178.793655
             4665   114.942216E+06    -57.47152E+06   -57.471664E+06      -6.89267826   344.828064E+06       58.1210403
             4666   114.942192E+06   -57.471584E+06    -57.47172E+06       130.196136   344.827968E+06      -24.6414566
             4667   114.942904E+06   -57.471092E+06   -57.471044E+06       17.1784286   344.828096E+06      -16.2244949
             4668   114.943232E+06   -57.470784E+06   -57.470688E+06      -26.2505512    344.82784E+06      -171.131653
             4669   114.945408E+06   -57.467908E+06   -57.466856E+06   1.14998950E+03   344.827776E+06       485.353271
             4670   114.942224E+06    -57.47166E+06   -57.471816E+06       89.3486176   344.828288E+06       21.0697155
             4671   114.942408E+06   -57.471336E+06   -57.471508E+06       262.550781   344.827904E+06       93.2612076
             4672   114.941856E+06    -57.47146E+06    -57.47174E+06       31.6162453   344.827936E+06      -42.7951241
             4673   114.940704E+06   -57.473448E+06   -57.472924E+06       118.413765   344.828384E+06      -70.6493378
             4674    114.94356E+06   -57.470748E+06   -57.470668E+06      -22.8164616    344.82784E+06       248.315170
             4675   114.943128E+06   -57.470432E+06    -57.47072E+06      -63.5940475   344.827904E+06      -42.5083122
             4676   114.943448E+06   -57.469952E+06   -57.469364E+06      -101.964996    344.82848E+06      -445.041870
             4677   114.943944E+06    -57.47074E+06   -57.470668E+06      -303.708923    344.82784E+06      -188.621307
             4678   114.943088E+06   -57.471096E+06   -57.471312E+06      -159.212143   344.827968E+06      -290.741608
             4679    114.94028E+06   -57.473028E+06   -57.473032E+06       267.501099   344.828224E+06       129.718048
             4680   114.944584E+06   -57.469964E+06   -57.469568E+06       39.7289047   344.827744E+06      -214.853897
             4681   114.948856E+06   -57.465032E+06   -57.465212E+06      -193.865753   344.827424E+06       82.2583466
             4682   114.945176E+06    -57.46762E+06   -57.470456E+06   1.50637268E+03   344.825568E+06      -188.559021
             4683     114.9508E+06    -57.46558E+06    -57.46632E+06      -79.2099838    344.82784E+06       736.633789
             4684    114.94172E+06   -57.471984E+06   -57.471944E+06      -333.944611   344.827712E+06       21.4843960
             4685   114.945248E+06   -57.465924E+06   -57.467008E+06  -1.54283850E+03   344.826816E+06       261.528015
             4686    114.94152E+06     -57.4724E+06    -57.47314E+06   821.945369E-03   344.828416E+06      -48.6833382
             4687   114.947096E+06   -57.467348E+06    -57.46744E+06      -301.010834   344.827904E+06      -309.278412
             4688    114.94368E+06   -57.469936E+06   -57.472792E+06  -1.02670337E+03   344.828224E+06       169.329315
             4689   114.951304E+06   -57.465428E+06   -57.461992E+06      -900.180481    344.83024E+06      -665.296387
             4690   114.943408E+06   -57.470436E+06   -57.470048E+06       56.1599731   344.827936E+06       96.5320663
             4691   114.942304E+06   -57.471624E+06   -57.471136E+06       177.701721   344.828256E+06      -249.162292
             4692    114.95144E+06   -57.462556E+06    -57.46462E+06      -939.271790   344.827616E+06      -610.705261
             4693   114.939464E+06   -57.473712E+06   -57.473744E+06      -351.579651   344.827744E+06      -7.58986902
             4694   114.943552E+06    -57.47076E+06   -57.470872E+06      -178.775269   344.827808E+06       104.689529
             4695    114.94184E+06   -57.472292E+06   -57.472236E+06       90.4350052   344.828096E+06      -40.8783264
             4696   114.945952E+06   -57.469188E+06   -57.468844E+06       41.4220428   344.828416E+06       35.4544716
             4697   114.943096E+06    -57.47074E+06   -57.470948E+06       96.9946365    344.82752E+06      -157.519638
             4698   114.941216E+06   -57.472384E+06    -57.47256E+06       223.084900   344.827616E+06      -137.656982
             4699   114.943064E+06   -57.470732E+06   -57.470872E+06       137.095200   344.827744E+06      -22.8644867
             4700   114.943792E+06   -57.470044E+06     -57.4701E+06       126.909416   344.827616E+06      -20.7376480
             4701   114.945096E+06   -57.469416E+06   -57.469388E+06      -182.436340    344.82736E+06      -381.075043
             4702   114.944168E+06   -57.470344E+06   -57.470476E+06       86.7413635   344.828128E+06      -218.189102
             4703   114.946152E+06   -57.468192E+06   -57.468168E+06       40.4459038   344.827328E+06       33.7953491
             4704   114.946024E+06   -57.468004E+06   -57.468612E+06      -219.872070   344.827968E+06      -77.2318192
             4705      114.946E+06   -57.470232E+06   -57.469304E+06       158.394897   344.827584E+06       547.464355
             4706   114.942616E+06    -57.47114E+06   -57.471464E+06      -50.6267853   344.828096E+06       190.938721
             4707   114.937864E+06   -57.475172E+06   -57.475792E+06      -210.287735   344.828992E+06       48.2760963
             4708   114.944744E+06   -57.468516E+06   -57.469212E+06      -528.753967   344.827872E+06       427.356232
             4709    114.94408E+06   -57.470444E+06   -57.471304E+06  -1.07395142E+03   344.828768E+06       537.515503
             4710    114.94104E+06    -57.47224E+06   -57.472032E+06       559.112061   344.827872E+06       149.811218
             4711    114.93932E+06   -57.473332E+06    -57.47398E+06      -871.818604    344.82752E+06      -122.334404
             4712   114.945768E+06   -57.467628E+06    -57.46682E+06      -304.148407   344.827648E+06      -402.279816
             4713   114.937032E+06    -57.47696E+06   -57.477572E+06      -30.7377625    344.82944E+06       250.254333
             4714   114.940112E+06    -57.47346E+06    -57.47456E+06      -210.106689   344.827296E+06      -305.125427
             4715   114.937704E+06   -57.477628E+06   -57.477208E+06   1.71532654E+03   344.830688E+06      -185.550842
             4716   114.937616E+06   -57.474556E+06    -57.47648E+06      -849.516174   344.827296E+06      -321.266663
             4717   114.941768E+06   -57.472728E+06   -57.471976E+06       643.740662   344.828288E+06      -139.226257
             4718   114.944792E+06   -57.469408E+06    -57.46962E+06       93.7808075   344.827424E+06      -124.275604
             4719   114.942632E+06   -57.471228E+06   -57.471316E+06      -69.7768936    344.82752E+06      -153.507416
             4720   114.926752E+06     -57.4832E+06   -57.482712E+06       839.093506   344.825376E+06      -198.540741
             4721     114.9426E+06   -57.472496E+06   -57.472404E+06   6.64662793E+03   344.830912E+06      -525.133057
             4722   114.942848E+06   -57.471852E+06   -57.472716E+06      -137.236130   344.827808E+06      -509.348969
             4723   114.939592E+06    -57.47254E+06    -57.47146E+06       577.455627   344.826048E+06       431.340424
             4724   114.952288E+06   -57.462352E+06   -57.464216E+06  -1.91457458E+03    344.82896E+06      -190.640564
             4725   114.937048E+06   -57.473472E+06   -57.474932E+06  -1.59520459E+03      344.828E+06      -415.811279
             4726   114.944104E+06   -57.469812E+06     -57.4698E+06       62.5692635    344.82816E+06       69.4319534
             4727   114.943456E+06    -57.47058E+06   -57.470372E+06      -152.384155   344.827904E+06      -144.521652
             4728   114.942736E+06   -57.471476E+06   -57.471048E+06      -380.407562   344.827936E+06      -200.403687
             4729   114.934432E+06   -57.476008E+06   -57.478792E+06   1.53951904E+03   344.830048E+06       77.4651871
             4730   114.961912E+06   -57.453012E+06   -57.452212E+06  -2.61687085E+03   344.823616E+06   1.18280554E+03
             4731   114.943048E+06   -57.471788E+06   -57.470524E+06       400.232117    344.82832E+06      -380.964294
             4732   114.943104E+06   -57.470436E+06   -57.470404E+06       161.353012    344.82816E+06      -283.513580
             4733   114.943672E+06   -57.470324E+06     -57.4703E+06       101.566032   344.827776E+06       70.6919556
             4734     114.9412E+06    -57.47238E+06    -57.47262E+06       101.116859   344.827616E+06       70.9750595
             4735   114.942216E+06   -57.471396E+06   -57.471564E+06       319.390167   344.827616E+06       379.924927
             4736    114.94148E+06   -57.472604E+06   -57.471916E+06       214.032837   344.828256E+06      -261.717255
             4737   114.944224E+06   -57.469856E+06   -57.469744E+06       25.5647011   344.827904E+06       31.0667019
             4738   114.941488E+06   -57.472976E+06    -57.47264E+06       516.916199    344.82816E+06      -72.7814941
             4739   114.943608E+06   -57.473448E+06    -57.47464E+06       207.037018   344.828544E+06      -907.643311
             4740    114.93652E+06   -57.475688E+06   -57.475824E+06       235.153778      344.828E+06       141.366287
             4741   114.944576E+06    -57.47064E+06   -57.470556E+06       107.394127    344.82736E+06      -100.276306
             4742   114.939448E+06    -57.47674E+06   -57.477052E+06       500.551575   344.830976E+06       809.642883
             4743   114.944624E+06   -57.470784E+06   -57.469848E+06      -173.082520   344.828928E+06       115.917595
             4744   114.949696E+06   -57.465684E+06   -57.465288E+06   1.38331299E+03   344.828256E+06       211.683151
             4745   114.953544E+06   -57.462328E+06   -57.462464E+06   1.26666736E+03   344.828096E+06      -141.908737
             4746   114.933632E+06   -57.478752E+06   -57.480692E+06   2.55404956E+03   344.829696E+06      -120.518738
             4747   114.944752E+06    -57.46986E+06   -57.468996E+06       396.151428   344.828768E+06       901.361816
             4748   114.943048E+06   -57.470936E+06   -57.470896E+06      -222.778336   344.828064E+06       8.25998974
             4749   114.944112E+06   -57.470028E+06   -57.470052E+06       88.6754684   344.827616E+06      -54.3776932
             4750   114.942136E+06   -57.471424E+06   -57.471572E+06       75.2491684   344.827584E+06       234.648071
             4751   114.942424E+06   -57.471692E+06   -57.471292E+06       259.153168   344.828288E+06      -121.716766
             4752    114.94372E+06   -57.469812E+06    -57.46978E+06      -78.6879044    344.82736E+06      -18.0022774
             4753   114.940032E+06    -57.47426E+06   -57.473656E+06       602.011536   344.828576E+06      -90.0749130
             4754   114.942448E+06   -57.471816E+06   -57.471788E+06      -397.982697   344.828288E+06      -92.8238449
             4755   114.937608E+06   -57.475468E+06   -57.476968E+06      -899.613098   344.826176E+06  -1.04067920E+03
             4756   114.942624E+06   -57.471452E+06   -57.471564E+06      -272.598236   344.828032E+06       154.082260
             4757   114.925816E+06     -57.4858E+06   -57.484616E+06      -373.997742   344.831488E+06       748.909851
             4758    114.94296E+06    -57.47102E+06   -57.470736E+06      -23.7601452   344.827904E+06      -43.3661194
             4759     114.9426E+06   -57.471116E+06   -57.471252E+06       115.508476   344.827744E+06      -27.2502975
             4760   114.945064E+06   -57.469632E+06   -57.467688E+06      -204.668121   344.829504E+06      -180.953522
             4761   114.943144E+06   -57.471044E+06    -57.47106E+06      -31.3014221   344.827904E+06      -71.9756241
             4762   114.940504E+06   -57.472324E+06      -57.472E+06      -403.490143   344.827904E+06       596.938354
             4763   114.942552E+06   -57.471148E+06   -57.471244E+06       152.273026   344.827712E+06      -61.3141136
             4764   114.941928E+06   -57.471884E+06   -57.471944E+06       62.5127907   344.828192E+06      -19.1717396
             4765   114.940744E+06    -57.47356E+06   -57.473612E+06       899.410645   344.827264E+06      -8.71026134
             4766   114.947456E+06   -57.469572E+06     -57.4681E+06  -3.11200854E+03   344.828864E+06      -879.909546
             4767    114.88416E+06   -57.517424E+06   -57.517788E+06  -1.89018469E+03    344.83472E+06       305.086761
             4768   114.947856E+06   -57.467076E+06   -57.467976E+06      -738.291870   344.827136E+06      -36.3292885
             4769   114.941432E+06    -57.47642E+06   -57.475108E+06       457.019806   344.832192E+06      -678.420288
             4770   114.943752E+06   -57.470508E+06   -57.470944E+06      -148.861145   344.828288E+06       204.229614
             4771   114.951408E+06   -57.461176E+06   -57.460644E+06       665.590881   344.827296E+06   1.91714001E+03
             4772   114.936104E+06   -57.475036E+06   -57.476656E+06       144.278366   344.826624E+06   1.16761780E+03
             4773   114.949344E+06     -57.4688E+06    -57.46782E+06  -1.73047449E+03   344.830592E+06  -1.14852515E+03
             4774   114.946056E+06   -57.470668E+06   -57.473212E+06       724.374329    344.82976E+06   1.59118652E+03
             4775   115.005608E+06   -57.419804E+06   -57.422452E+06   4.10089307E+03   344.820704E+06  -1.26109607E+03
             4776   114.945912E+06    -57.46664E+06   -57.469024E+06       820.477905   344.828064E+06      -304.751678
             4777   114.957856E+06   -57.461956E+06   -57.458624E+06       620.467529   344.829184E+06       544.286865
             4778   114.939664E+06   -57.473068E+06   -57.473452E+06       630.528015   344.827232E+06       279.167725
             4779   114.942808E+06   -57.472036E+06   -57.470152E+06       362.738220   344.830336E+06      -155.981384
             4780   114.944528E+06   -57.467704E+06   -57.469428E+06      -759.025085   344.825856E+06       164.181213
             4781   114.943848E+06   -57.470508E+06   -57.471588E+06       459.754791    344.82864E+06       740.356812
             4782   114.938384E+06   -57.478892E+06   -57.475328E+06   1.69915540E+03     344.8312E+06       659.357971
             4783   114.935744E+06   -57.477876E+06    -57.47724E+06      -317.138641   344.827168E+06      -638.324585
             4784   114.897616E+06   -57.503516E+06    -57.50308E+06   1.43195056E+03   344.830016E+06       534.110229
             4785    114.94656E+06   -57.467624E+06   -57.467332E+06       675.747375   344.828256E+06       484.443695
             4786   114.945048E+06   -57.468508E+06   -57.468776E+06       87.0526428   344.827296E+06      -171.112442
             4787   114.941744E+06    -57.47158E+06   -57.471664E+06       285.379303   344.828128E+06      -110.509926
             4788   114.941936E+06   -57.471612E+06   -57.471592E+06       80.7840500   344.828064E+06       118.629730
             4789   114.939328E+06   -57.475932E+06   -57.477932E+06       343.249146   344.828192E+06      -116.199562
             4790   114.936064E+06   -57.474232E+06    -57.47656E+06      -320.374878   344.826144E+06      -106.773788
             4791   114.941856E+06    -57.47212E+06   -57.471708E+06       4.67248774   344.828032E+06       14.8989506
             4792   114.950776E+06     -57.4641E+06   -57.466432E+06       520.253052   344.826912E+06      -880.749451
             4793   114.940568E+06   -57.473492E+06   -57.475252E+06       328.256531   344.828288E+06      -192.151184
             4794   114.942904E+06   -57.471004E+06   -57.470648E+06       14.4450226    344.82768E+06      -69.7719727
             4795   114.946496E+06   -57.468284E+06   -57.465928E+06      -195.290314    344.82784E+06       524.659180
             4796   114.943896E+06   -57.470408E+06   -57.469676E+06       217.135681   344.827744E+06      -50.4282074
             4797   114.945984E+06   -57.463572E+06   -57.463224E+06      -412.926117   344.826624E+06       357.360535
             4798   114.942368E+06   -57.472096E+06   -57.475016E+06       911.998962   344.828128E+06       21.5735722
             4799   114.933128E+06   -57.479796E+06   -57.480616E+06      -7.81525087   344.829728E+06      -111.299385
             4800   114.942688E+06   -57.470896E+06   -57.471292E+06       29.0960941    344.82736E+06       176.160797
             4801   114.932712E+06   -57.475908E+06   -57.479268E+06   1.35709119E+03    344.82976E+06       161.791138
             4802    114.92848E+06   -57.481176E+06   -57.478716E+06  -1.52598523E+03   344.827552E+06      -603.759033
             4803    114.94656E+06   -57.469304E+06   -57.470956E+06      -430.251892   344.828128E+06      -151.057709
             4804   114.942184E+06    -57.47424E+06    -57.46922E+06       120.179832   344.826496E+06      -224.825195
             4805    114.95228E+06    -57.46344E+06   -57.463828E+06       22.5982876   344.828576E+06      -59.5495796
             4806   114.944488E+06   -57.470864E+06    -57.47064E+06       168.692963   344.827424E+06      -27.4441738
             4807   114.941904E+06   -57.471812E+06   -57.471692E+06      -55.8456039    344.82832E+06      -333.711121
             4808   114.943008E+06   -57.471084E+06   -57.471392E+06       517.302979    344.82784E+06       318.669312
             4809   114.947864E+06   -57.466492E+06   -57.464732E+06   3.00182959E+03   344.826144E+06       354.042023
             4810   114.943072E+06    -57.47404E+06   -57.470784E+06   1.37334045E+03   344.830112E+06       754.683167
             4811   114.943248E+06    -57.47084E+06   -57.470916E+06      -31.2305393    344.82832E+06      -384.197479
             4812   114.944464E+06   -57.470124E+06   -57.469624E+06       256.540802     344.8272E+06   1.16537903E+03
             4813     114.9626E+06   -57.450776E+06   -57.449696E+06   4.36268018E+03   344.824512E+06       818.152344
             4814   114.934408E+06   -57.481368E+06   -57.481756E+06      -60.3094940   344.828928E+06   2.15362183E+03
             4815    114.89792E+06     -57.5043E+06   -57.505268E+06       524.764587   344.831328E+06      -288.688690
             4816    114.93736E+06    -57.47686E+06   -57.475644E+06       33.4840355    344.82784E+06      -585.467590
             4817    114.93248E+06    -57.47812E+06   -57.477952E+06  -1.49343530E+03   344.828448E+06      -396.180542
             4818   114.946296E+06   -57.466508E+06   -57.466672E+06       11.3664532   344.827808E+06      -223.450684
             4819   114.943184E+06   -57.470192E+06   -57.469924E+06       448.786530   344.828192E+06      -411.137146
             4820   114.972232E+06   -57.448052E+06   -57.448032E+06   2.86199365E+03   344.826176E+06       341.746613
             4821   114.942792E+06   -57.470528E+06     -57.4701E+06       350.731750   344.828416E+06      -337.348175
             4822   114.955088E+06   -57.461704E+06   -57.457584E+06       484.797668   344.827104E+06      -472.970520
             4823   114.940056E+06   -57.475316E+06   -57.474936E+06      -419.531830   344.830368E+06       330.136292
             4824   114.945528E+06     -57.4685E+06   -57.468136E+06      -340.920563    344.82736E+06      -138.583298
             4825   114.939272E+06    -57.47446E+06   -57.475384E+06      -354.952393    344.82736E+06      -342.218872
             4826   114.949216E+06   -57.465164E+06   -57.465308E+06       588.324829    344.82656E+06      -25.2211552
             4827   114.948472E+06   -57.465784E+06   -57.465196E+06       396.929138   344.826592E+06      -211.840240
             4828   114.947416E+06   -57.467488E+06   -57.468284E+06      -281.598358   344.827104E+06      -103.805611
             4829   114.943936E+06   -57.468712E+06    -57.47026E+06       604.316772   344.827168E+06       318.724152
             4830     114.9428E+06   -57.471916E+06   -57.471008E+06       368.481598   344.828384E+06       101.738152
             4831   114.940184E+06   -57.472356E+06   -57.474444E+06      -376.950104   344.827072E+06      -149.683334
             4832   114.943472E+06    -57.47174E+06   -57.471804E+06      -670.009888   344.828128E+06      -205.644424
             4833   114.940664E+06   -57.472904E+06    -57.47336E+06      -50.4133530    344.82848E+06       69.9500885
             4834   114.939104E+06    -57.47446E+06    -57.47448E+06      -103.514259   344.828128E+06       20.2073708
             4835   114.948432E+06   -57.466728E+06    -57.46702E+06       674.487610    344.82752E+06       47.5465012
             4836   114.942752E+06   -57.471132E+06   -57.471392E+06      -50.8463326   344.827872E+06       252.763901
             4837   114.942192E+06    -57.47174E+06     -57.4718E+06      -109.333870    344.82768E+06      -86.1129913
             4838   114.942408E+06    -57.47182E+06   -57.471412E+06       38.2004967   344.828096E+06       409.460999
             4839   114.941512E+06   -57.472056E+06   -57.471876E+06      -426.026733   344.827904E+06      -39.0676880
             4840   114.940808E+06   -57.474632E+06   -57.475544E+06  -2.50003564E+03   344.828768E+06      -346.375885
             4841   114.930552E+06   -57.481104E+06    -57.48206E+06       664.162354    344.82704E+06      -369.425842
             4842   114.943448E+06   -57.470048E+06    -57.47036E+06      -88.5068970   344.827776E+06      -36.1928635
             4843   114.941704E+06   -57.473232E+06   -57.472312E+06      -568.663391   344.828032E+06       75.5974579
             4844   114.943568E+06   -57.470532E+06    -57.47062E+06       291.302795   344.827808E+06      -98.6857910
             4845   114.940456E+06   -57.475512E+06    -57.47528E+06   1.01102161E+03   344.830688E+06       480.785370
             4846    114.92644E+06   -57.484564E+06   -57.484252E+06   4.24171143E+03   344.828384E+06       228.360367
             4847   114.949592E+06   -57.465196E+06   -57.463984E+06        2.463E+03     344.8272E+06   1.19086511E+03
             4848   114.940768E+06   -57.473752E+06   -57.474716E+06      -389.207855   344.828064E+06      -184.662903
             4849    114.93136E+06    -57.48242E+06   -57.478908E+06   1.15466943E+03   344.828608E+06       345.359985
             4850   114.946848E+06   -57.467352E+06   -57.467436E+06       278.905396   344.826592E+06      -141.687225
             4851   114.940256E+06   -57.472596E+06   -57.472608E+06       239.359970    344.82688E+06       101.930023
             4852   114.937624E+06   -57.475444E+06    -57.47502E+06      -582.751892   344.828192E+06      -77.6658630
             4853      114.944E+06   -57.470512E+06   -57.469612E+06      -610.593140    344.82752E+06       39.5027924
             4854   114.922664E+06    -57.49068E+06   -57.491228E+06  -3.30923071E+03   344.831616E+06       130.579926
             4855   114.944016E+06   -57.468664E+06   -57.467448E+06   1.76375964E+03   344.822784E+06       655.069336
             4856    114.95424E+06    -57.46332E+06   -57.462496E+06  -2.18612280E+03   344.828992E+06      -379.005859
             4857   114.911384E+06   -57.491688E+06   -57.493036E+06   1.04653796E+03   344.826176E+06   1.54006165E+03
             4858   114.951272E+06   -57.465244E+06   -57.464108E+06  -1.27713586E+03   344.828512E+06      -583.229492
             4859   114.974136E+06   -57.444592E+06   -57.444132E+06       49.0210571   344.825216E+06      -54.0368080
             4860   114.953184E+06   -57.465132E+06   -57.463648E+06  -1.64376221E+03    344.82784E+06       318.290222
             4861   114.943296E+06   -57.470536E+06   -57.470776E+06      -103.148415    344.82784E+06      -135.623001
             4862   114.943144E+06   -57.470456E+06   -57.470276E+06       36.6283150   344.827904E+06       38.7410393
             4863   114.941952E+06   -57.471736E+06   -57.471828E+06       190.565872   344.827904E+06       64.0817719
             4864   114.941632E+06   -57.472148E+06   -57.472268E+06      -56.5368805   344.828192E+06       68.9182587
             4865   114.941024E+06   -57.472936E+06   -57.473108E+06       81.5496292    344.82784E+06      -72.2808456
             4866   114.923248E+06    -57.48904E+06   -57.489272E+06   1.26943091E+03   344.831104E+06      -17.7638245
             4867    114.94204E+06   -57.474288E+06   -57.475412E+06      -165.567078   344.830144E+06       638.514832
             4868   114.947864E+06    -57.46944E+06   -57.470796E+06  -1.04477222E+03   344.827936E+06      -604.659607
             4869   114.936208E+06   -57.473776E+06   -57.476484E+06   1.25449060E+03     344.8304E+06       311.209381


  Minimum           114.843544E+06   -57.552076E+06   -57.553028E+06  -11.9451582E+03   344.812992E+06  -3.04785669E+03
       At Element             3561             3348             3348              665               37              648

  Maximum           115.049072E+06   -57.381908E+06   -57.384448E+06   11.8778008E+03   344.841664E+06   2.87569287E+03
       At Element             3182             1126             1126             1871             3348              886

            Total   559.657443E+09  -279.826234E+09  -279.826245E+09   108.734112E+03   1.67896700E+12   36.0688976E+03


