********************************************************************************
Field Output Report, written Thu Feb 07 00:12:05 2019

Source 1
---------

   ODB: C:/AbaqusTemp/realSimulation/squarePlateFine_right-half-parabola.odb
   Step: Step-1
   Frame: Increment      1: Step Time =    1.000

Loc 1 : Nodal values from source 1

Output sorted by column "Node Label".

Field Output reported at nodes for part: PART-1-1
   Computation algorithm: EXTRAPOLATE_COMPUTE_AVERAGE
   Averaged at nodes
   Averaging regions: ODB_REGIONS

      Node Label           S.S11           S.S22           S.S33           S.S12
                          @Loc 1          @Loc 1          @Loc 1          @Loc 1
---------------------------------------------------------------------------------
               1     375.371E+06     140.978E+06              0.     104.507E+06
               2     269.266E+06     18.0222E+06              0.     35.0499E+06
               3     194.103E+06     10.9465E+06              0.     9.64570E+06
               4     158.978E+06     3.81124E+06              0.     6.58985E+06
               5     138.955E+06     2.92399E+06              0.     4.75697E+06
               6     123.591E+06     2.22240E+06              0.     4.05117E+06
               7     111.140E+06     1.85361E+06              0.     3.62814E+06
               8     100.560E+06     1.56883E+06              0.     3.34184E+06
               9     91.3754E+06     1.34027E+06              0.     3.10786E+06
              10     83.2910E+06     1.14466E+06              0.     2.89642E+06
              11     76.1165E+06     973.390E+03              0.     2.69471E+06
              12     69.7173E+06     821.440E+03              0.     2.49842E+06
              13     63.9926E+06     685.920E+03              0.     2.30681E+06
              14     58.8634E+06     564.877E+03              0.     2.12063E+06
              15     54.2647E+06     456.848E+03              0.     1.94106E+06
              16     50.1419E+06     360.622E+03              0.     1.76929E+06
              17     46.4476E+06     275.122E+03              0.     1.60630E+06
              18     43.1401E+06     199.346E+03              0.     1.45275E+06
              19     40.1821E+06     132.336E+03              0.     1.30904E+06
              20     37.5401E+06     73.1710E+03              0.     1.17527E+06
              21     35.1837E+06      20.955E+03              0.     1.05132E+06
              22     33.0852E+06    -25.1795E+03              0.     936.844E+03
              23     31.2198E+06    -66.0729E+03              0.     831.365E+03
              24     29.5649E+06    -102.539E+03              0.     734.255E+03
              25     28.1001E+06    -135.365E+03              0.     644.773E+03
              26     26.8075E+06    -165.317E+03              0.     562.069E+03
              27     25.6712E+06    -193.144E+03              0.     485.184E+03
              28     24.6779E+06    -219.580E+03              0.     413.017E+03
              29     23.8167E+06    -245.354E+03              0.     344.289E+03
              30     23.0796E+06    -271.189E+03              0.     277.438E+03
              31     22.4621E+06    -297.788E+03              0.     210.472E+03
              32     21.9643E+06    -325.786E+03              0.     140.673E+03
              33     21.5930E+06    -355.584E+03              0.     64.0864E+03
              34     21.3647E+06    -387.059E+03              0.    -25.5601E+03
              35     21.3143E+06    -417.674E+03              0.    -138.767E+03
              36     21.5082E+06    -442.330E+03              0.    -296.893E+03
              37     22.1076E+06    -418.071E+03              0.    -537.551E+03
              38     23.4176E+06    -322.704E+03              0.    -1.00867E+06
              39     27.0929E+06     846.541E+03              0.    -1.81895E+06
              40     35.7665E+06     2.44537E+06              0.    -5.91946E+06
              41     50.1378E+06     22.4272E+06              0.    -14.3412E+06
              42     202.434E+06     81.9342E+06              0.     69.3255E+06
              43     176.960E+06     10.7617E+06              0.     37.5223E+06
              44     173.802E+06     10.2364E+06              0.     25.2809E+06
              45     149.122E+06     4.91219E+06              0.     16.5417E+06
              46     130.823E+06     2.79966E+06              0.     12.7604E+06
              47     116.577E+06     1.77367E+06              0.     10.5462E+06
              48     105.014E+06     1.26443E+06              0.     9.13729E+06
              49     95.2741E+06     988.686E+03              0.     8.11695E+06
              50     86.8688E+06     827.957E+03              0.     7.31223E+06
              51     79.5005E+06     726.005E+03              0.     6.63514E+06
              52     72.9755E+06     655.081E+03              0.     6.04088E+06
              53     67.1596E+06     600.871E+03              0.     5.50530E+06
              54     61.9547E+06     555.824E+03              0.     5.01514E+06
              55     57.2854E+06     515.940E+03              0.     4.56283E+06
              56     53.0915E+06     479.135E+03              0.     4.14391E+06
              57     49.3231E+06     444.382E+03              0.     3.75556E+06
              58     45.9377E+06     411.231E+03              0.     3.39580E+06
              59     42.8985E+06     379.542E+03              0.     3.06307E+06
              60     40.1728E+06     349.342E+03              0.     2.75595E+06
              61     37.7318E+06     320.729E+03              0.     2.47306E+06
              62     35.5492E+06     293.834E+03              0.     2.21298E+06
              63     33.6018E+06     268.795E+03              0.     1.97421E+06
              64     31.8683E+06     245.750E+03              0.     1.75514E+06
              65     30.3300E+06     224.841E+03              0.     1.55408E+06
              66     28.9701E+06     206.222E+03              0.     1.36921E+06
              67     27.7741E+06     190.080E+03              0.     1.19854E+06
              68     26.7298E+06     176.666E+03              0.     1.03993E+06
              69     25.8272E+06     166.345E+03              0.     890.923E+03
              70     25.0593E+06     159.667E+03              0.     748.693E+03
              71     24.4223E+06     157.499E+03              0.     609.775E+03
              72     23.9165E+06     161.240E+03              0.     469.717E+03
              73     23.5481E+06     173.224E+03              0.     322.438E+03
              74     23.3310E+06     197.474E+03              0.     159.080E+03
              75     23.2920E+06     241.250E+03              0.    -34.1310E+03
              76     23.4779E+06     318.394E+03              0.    -280.384E+03
              77     23.9700E+06     456.757E+03              0.    -620.803E+03
              78     24.9086E+06     717.736E+03              0.    -1.14087E+06
              79     26.4960E+06     1.22301E+06              0.    -1.99422E+06
              80     28.9007E+06     2.31521E+06              0.    -3.69155E+06
              81     28.2893E+06     2.92554E+06              0.    -6.01884E+06
              82     31.2202E+06     14.0146E+06              0.    -9.50101E+06
              83     141.356E+06     59.4274E+06              0.     53.7153E+06
              84     133.820E+06     32.0774E+06              0.     45.4582E+06
              85     132.245E+06     13.0783E+06              0.     38.0285E+06
              86     126.720E+06     8.21240E+06              0.     30.1105E+06
              87     115.902E+06     5.14564E+06              0.     24.2551E+06
              88     105.550E+06     3.54629E+06              0.     20.4049E+06
              89     96.2903E+06     2.64590E+06              0.     17.6670E+06
              90     88.1397E+06     2.12151E+06              0.     15.6035E+06
              91     80.9408E+06     1.79706E+06              0.     13.9524E+06
              92     74.5446E+06     1.58201E+06              0.     12.5701E+06
              93     68.8310E+06     1.42780E+06              0.     11.3731E+06
              94     63.7066E+06     1.30798E+06              0.     10.3119E+06
              95     59.0980E+06     1.20795E+06              0.     9.35623E+06
              96     54.9466E+06     1.11967E+06              0.     8.48697E+06
              97     51.2039E+06     1.03875E+06              0.     7.69152E+06
              98     47.8295E+06     962.915E+03              0.     6.96121E+06
              99     44.7883E+06     891.057E+03              0.     6.28973E+06
             100     42.0499E+06     822.748E+03              0.     5.67216E+06
             101     39.5871E+06     757.920E+03              0.     5.10439E+06
             102     37.3759E+06     696.699E+03              0.     4.58277E+06
             103     35.3946E+06     639.296E+03              0.     4.10389E+06
             104     33.6237E+06     585.967E+03              0.     3.66442E+06
             105     32.0457E+06     536.985E+03              0.     3.26103E+06
             106     30.6452E+06     492.648E+03              0.     2.89031E+06
             107     29.4085E+06     453.298E+03              0.     2.54870E+06
             108     28.3240E+06     419.358E+03              0.     2.23239E+06
             109     27.3821E+06     391.403E+03              0.     1.93725E+06
             110     26.5754E+06     370.248E+03              0.     1.65862E+06
             111     25.8989E+06     357.112E+03              0.     1.39108E+06
             112     25.3510E+06     353.864E+03              0.     1.12803E+06
             113     24.9332E+06     363.445E+03              0.     861.029E+03
             114     24.6518E+06     390.593E+03              0.     578.748E+03
             115     24.5187E+06     443.138E+03              0.     265.140E+03
             116     24.5530E+06     534.422E+03              0.    -103.715E+03
             117     24.7804E+06     687.850E+03              0.    -564.947E+03
             118     25.2285E+06     946.092E+03              0.    -1.17924E+06
             119     25.8933E+06     1.38563E+06              0.    -2.04053E+06
             120     26.6539E+06     2.16685E+06              0.    -3.30743E+06
             121     26.6991E+06     3.43860E+06              0.    -4.98413E+06
             122     26.4372E+06     7.07599E+06              0.    -6.64477E+06
             123     27.5794E+06     12.3579E+06              0.    -7.42535E+06
             124     102.535E+06     44.5553E+06              0.     44.9279E+06
             125     101.500E+06     33.5217E+06              0.     41.8772E+06
             126     103.143E+06     20.6273E+06              0.     41.2520E+06
             127     101.812E+06     12.4912E+06              0.     36.7095E+06
             128     97.6476E+06     8.53628E+06              0.     31.8303E+06
             129     91.6187E+06     6.19029E+06              0.     27.6985E+06
             130     85.2959E+06     4.79564E+06              0.     24.4037E+06
             131     79.2112E+06     3.92310E+06              0.     21.7335E+06
             132     73.5562E+06     3.35155E+06              0.     19.5123E+06
             133     68.3704E+06     2.95469E+06              0.     17.6126E+06
             134     63.6408E+06     2.66100E+06              0.     15.9503E+06
             135     59.3371E+06     2.42918E+06              0.     14.4698E+06
             136     55.4255E+06     2.23525E+06              0.     13.1346E+06
             137     51.8730E+06     2.06526E+06              0.     11.9200E+06
             138     48.6493E+06     1.91118E+06              0.     10.8090E+06
             139     45.7269E+06     1.76848E+06              0.     9.78939E+06
             140     43.0810E+06     1.63474E+06              0.     8.85213E+06
             141     40.6889E+06     1.50874E+06              0.     7.98995E+06
             142     38.5301E+06     1.39003E+06              0.     7.19681E+06
             143     36.5860E+06     1.27854E+06              0.     6.46735E+06
             144     34.8398E+06     1.17445E+06              0.     5.79662E+06
             145     33.2761E+06     1.07806E+06              0.     5.17985E+06
             146     31.8811E+06     989.793E+03              0.     4.61227E+06
             147     30.6427E+06     910.114E+03              0.     4.08905E+06
             148     29.5501E+06     839.623E+03              0.     3.60514E+06
             149     28.5941E+06     779.091E+03              0.     3.15516E+06
             150     27.7675E+06     729.570E+03              0.     2.73328E+06
             151     27.0644E+06     692.554E+03              0.     2.33292E+06
             152     26.4811E+06     670.239E+03              0.     1.94648E+06
             153     26.0161E+06     665.921E+03              0.     1.56488E+06
             154     25.6699E+06     684.655E+03              0.     1.17673E+06
             155     25.4451E+06     734.329E+03              0.     767.372E+03
             156     25.3459E+06     827.500E+03              0.     317.151E+03
             157     25.3755E+06     984.544E+03              0.    -200.786E+03
             158     25.5300E+06     1.23932E+06              0.    -823.380E+03
             159     25.7814E+06     1.64858E+06              0.    -1.59842E+06
             160     26.0477E+06     2.31372E+06              0.    -2.57980E+06
             161     26.1045E+06     3.39208E+06              0.    -3.76826E+06
             162     25.8645E+06     5.33487E+06              0.    -5.00352E+06
             163     25.3720E+06     8.20600E+06              0.    -5.80053E+06
             164     25.8381E+06     11.5663E+06              0.    -6.16094E+06
             165     75.5803E+06     33.7793E+06              0.     38.9871E+06
             166     76.5894E+06     29.9731E+06              0.     38.1420E+06
             167     79.5054E+06     22.7299E+06              0.     40.0803E+06
             168     80.5446E+06     16.2660E+06              0.     38.6437E+06
             169     79.5008E+06     11.8541E+06              0.     35.5830E+06
             170     76.8247E+06     9.10102E+06              0.     32.2179E+06
             171     73.1840E+06     7.31001E+06              0.     29.0723E+06
             172     69.1929E+06     6.11935E+06              0.     26.2767E+06
             173     65.1777E+06     5.29508E+06              0.     23.8106E+06
             174     61.3049E+06     4.69730E+06              0.     21.6228E+06
             175     57.6506E+06     4.24044E+06              0.     19.6632E+06
             176     54.2453E+06     3.87238E+06              0.     17.8918E+06
             177     51.0960E+06     3.56133E+06              0.     16.2786E+06
             178     48.1983E+06     3.28796E+06              0.     14.8015E+06
             179     45.5419E+06     3.04064E+06              0.     13.4443E+06
             180     43.1143E+06     2.81252E+06              0.     12.1944E+06
             181     40.9018E+06     2.59969E+06              0.     11.0421E+06
             182     38.8905E+06     2.40006E+06              0.     9.97944E+06
             183     37.0672E+06     2.21267E+06              0.     8.99951E+06
             184     35.4191E+06     2.03722E+06              0.     8.09607E+06
             185     33.9342E+06     1.87382E+06              0.     7.26323E+06
             186     32.6014E+06     1.72286E+06              0.     6.49526E+06
             187     31.4106E+06     1.58487E+06              0.     5.78639E+06
             188     30.3527E+06     1.46058E+06              0.     5.13074E+06
             189     29.4197E+06     1.35091E+06              0.     4.52212E+06
             190     28.6048E+06     1.25708E+06              0.     3.95399E+06
             191     27.9020E+06     1.18074E+06              0.     3.41919E+06
             192     27.3070E+06     1.12419E+06              0.     2.90978E+06
             193     26.8162E+06     1.09078E+06              0.     2.41673E+06
             194     26.4272E+06     1.08539E+06              0.     1.92947E+06
             195     26.1381E+06     1.11528E+06              0.     1.43538E+06
             196     25.9466E+06     1.19144E+06              0.     919.044E+03
             197     25.8481E+06     1.33062E+06              0.     361.591E+03
             198     25.8320E+06     1.55866E+06              0.    -259.719E+03
             199     25.8738E+06     1.91573E+06              0.    -970.107E+03
             200     25.9249E+06     2.46495E+06              0.    -1.79143E+06
             201     25.8961E+06     3.30051E+06              0.    -2.72145E+06
             202     25.7012E+06     4.57738E+06              0.    -3.69559E+06
             203     25.2954E+06     6.39693E+06              0.    -4.53656E+06
             204     24.7254E+06     8.62327E+06              0.    -5.03349E+06
             205     25.0338E+06     11.1965E+06              0.    -5.22341E+06
             206     55.0102E+06     25.2453E+06              0.     34.5258E+06
             207     56.9767E+06     25.4459E+06              0.     34.6323E+06
             208     60.2431E+06     22.0938E+06              0.     37.7060E+06
             209     62.3799E+06     17.9372E+06              0.     38.0768E+06
             210     63.1197E+06     14.3581E+06              0.     36.6655E+06
             211     62.5399E+06     11.6875E+06              0.     34.3710E+06
             212     60.9729E+06     9.78501E+06              0.     31.7952E+06
             213     58.7925E+06     8.41723E+06              0.     29.2341E+06
             214     56.3062E+06     7.41176E+06              0.     26.8073E+06
             215     53.7141E+06     6.64596E+06              0.     24.5492E+06
             216     51.1384E+06     6.03817E+06              0.     22.4605E+06
             217     48.6496E+06     5.53493E+06              0.     20.5305E+06
             218     46.2867E+06     5.10181E+06              0.     18.7456E+06
             219     44.0694E+06     4.71695E+06              0.     17.0933E+06
             220     42.0061E+06     4.36672E+06              0.     15.5626E+06
             221     40.0981E+06     4.04281E+06              0.     14.1444E+06
             222     38.3427E+06     3.74036E+06              0.     12.8304E+06
             223     36.7349E+06     3.45669E+06              0.     11.6137E+06
             224     35.2683E+06     3.19056E+06              0.     10.4877E+06
             225     33.9360E+06     2.94155E+06              0.     9.44609E+06
             226     32.7308E+06     2.70983E+06              0.     8.48283E+06
             227     31.6457E+06     2.49591E+06              0.     7.59177E+06
             228     30.6742E+06     2.30058E+06              0.     6.76666E+06
             229       29.81E+06     2.12486E+06              0.     6.00097E+06
             230     29.0476E+06     1.97008E+06              0.     5.28785E+06
             231     28.3820E+06     1.83796E+06              0.     4.61998E+06
             232     27.8087E+06     1.73079E+06              0.     3.98944E+06
             233     27.3241E+06     1.65173E+06              0.     3.38756E+06
             234     26.9245E+06     1.60521E+06              0.     2.80468E+06
             235     26.6063E+06     1.59755E+06              0.     2.22996E+06
             236     26.3651E+06     1.63782E+06              0.     1.65109E+06
             237     26.1945E+06     1.73918E+06              0.     1.05424E+06
             238     26.0837E+06     1.92077E+06              0.     424.376E+03
             239     26.0143E+06     2.21039E+06              0.    -253.375E+03
             240     25.9562E+06     2.64799E+06              0.    -989.949E+03
             241     25.8633E+06     3.28875E+06              0.    -1.78366E+06
             242     25.6817E+06     4.20545E+06              0.    -2.60530E+06
             243     25.3666E+06     5.46253E+06              0.    -3.37985E+06
             244     24.9112E+06     7.06048E+06              0.    -3.99332E+06
             245     24.3493E+06     8.86116E+06              0.    -4.33721E+06
             246     24.5824E+06     10.9871E+06              0.    -4.46253E+06
             247     38.6113E+06     18.2277E+06              0.     30.9092E+06
             248     41.0560E+06     20.8699E+06              0.     31.4776E+06
             249     44.3279E+06     20.1917E+06              0.     34.9538E+06
             250     46.9599E+06     18.1218E+06              0.     36.3460E+06
             251     48.6783E+06     15.7584E+06              0.     36.1013E+06
             252     49.4240E+06     13.6455E+06              0.     34.7947E+06
             253     49.3158E+06     11.9295E+06              0.     32.9111E+06
             254     48.5634E+06     10.5781E+06              0.     30.7777E+06
             255     47.3804E+06     9.50928E+06              0.     28.5825E+06
             256     45.9425E+06     8.64654E+06              0.     26.4242E+06
             257     44.3768E+06     7.92952E+06              0.       24.35E+06
             258     42.7697E+06     7.31458E+06              0.     22.3808E+06
             259     41.1778E+06     6.77153E+06              0.     20.5240E+06
             260     39.6370E+06     6.28024E+06              0.     18.7804E+06
             261     38.1694E+06     5.82771E+06              0.     17.1479E+06
             262     36.7878E+06     5.40586E+06              0.     15.6227E+06
             263     35.4987E+06     5.00994E+06              0.     14.2005E+06
             264     34.3046E+06     4.63741E+06              0.     12.8765E+06
             265     33.2057E+06     4.28716E+06              0.     11.6456E+06
             266     32.2002E+06     3.95903E+06              0.     10.5025E+06
             267     31.2854E+06     3.65345E+06              0.     9.44151E+06
             268     30.4583E+06     3.37124E+06              0.     8.45671E+06
             269     29.7152E+06     3.11355E+06              0.     7.54181E+06
             270     29.0528E+06     2.88182E+06              0.     6.69013E+06
             271     28.4676E+06     2.67782E+06              0.     5.89456E+06
             272     27.9563E+06     2.50380E+06              0.     5.14751E+06
             273     27.5158E+06     2.36269E+06              0.     4.44083E+06
             274     27.1428E+06     2.25840E+06              0.     3.76572E+06
             275     26.8336E+06     2.19623E+06              0.     3.11270E+06
             276     26.5837E+06     2.18349E+06              0.     2.47156E+06
             277     26.3872E+06     2.23026E+06              0.     1.83152E+06
             278     26.2349E+06     2.35057E+06              0.     1.18163E+06
             279     26.1136E+06     2.56366E+06              0.     511.834E+03
             280     26.0036E+06     2.89555E+06              0.    -184.806E+03
             281     25.8776E+06     3.38009E+06              0.    -907.944E+03
             282     25.7023E+06     4.05822E+06              0.    -1.64341E+06
             283     25.4453E+06     4.96981E+06              0.    -2.35544E+06
             284     25.0875E+06     6.13433E+06              0.    -2.98441E+06
             285     24.6323E+06     7.52016E+06              0.    -3.45792E+06
             286     24.1059E+06     9.02782E+06              0.    -3.72146E+06
             287     24.3006E+06     10.8552E+06              0.    -3.81473E+06
             288     25.1509E+06     12.3156E+06              0.     27.8174E+06
             289     27.8661E+06     16.5677E+06              0.     28.6059E+06
             290     31.0147E+06     17.7676E+06              0.     32.1398E+06
             291     33.8370E+06     17.3950E+06              0.     34.0611E+06
             292     36.0889E+06     16.2666E+06              0.     34.5801E+06
             293     37.6560E+06     14.9162E+06              0.     34.0443E+06
             294     38.5493E+06     13.6128E+06              0.     32.8076E+06
             295     38.8637E+06     12.4529E+06              0.     31.1560E+06
             296     38.7294E+06     11.4474E+06              0.     29.2908E+06
             297     38.2742E+06     10.5749E+06              0.     27.3415E+06
             298     37.6059E+06     9.80729E+06              0.     25.3873E+06
             299     36.8075E+06     9.11937E+06              0.     23.4749E+06
             300     35.9399E+06     8.49147E+06              0.     21.6311E+06
             301     35.0464E+06     7.90951E+06              0.     19.8708E+06
             302     34.1568E+06     7.36412E+06              0.     18.2018E+06
             303     33.2915E+06     6.84948E+06              0.     16.6273E+06
             304     32.4639E+06     6.36233E+06              0.     15.1478E+06
             305     31.6824E+06     5.90121E+06              0.     13.7618E+06
             306     30.9522E+06     5.46585E+06              0.     12.4665E+06
             307     30.2760E+06     5.05678E+06              0.     11.2581E+06
             308     29.6552E+06     4.67503E+06              0.     10.1321E+06
             309     29.0897E+06     4.32200E+06              0.     9.08328E+06
             310     28.5789E+06     3.99934E+06              0.     8.10567E+06
             311     28.1216E+06     3.70900E+06              0.     7.19291E+06
             312     27.7166E+06     3.45327E+06              0.     6.33805E+06
             313     27.3618E+06     3.23493E+06              0.     5.53368E+06
             314     27.0553E+06     3.05747E+06              0.     4.77185E+06
             315     26.7944E+06     2.92533E+06              0.     4.04419E+06
             316     26.5755E+06     2.84437E+06              0.     3.34196E+06
             317     26.3939E+06     2.82232E+06              0.     2.65624E+06
             318     26.2430E+06     2.86943E+06              0.     1.97831E+06
             319     26.1132E+06     2.99919E+06              0.     1.30044E+06
             320     25.9914E+06     3.22902E+06              0.     617.171E+03
             321     25.8604E+06     3.58063E+06              0.    -72.4168E+03
             322     25.6991E+06     4.07933E+06              0.    -761.537E+03
             323     25.4854E+06     4.75068E+06              0.    -1.43190E+06
             324     25.2016E+06     5.61279E+06              0.    -2.05134E+06
             325     24.8404E+06     6.66366E+06              0.    -2.57602E+06
             326     24.4093E+06     7.86888E+06              0.    -2.96064E+06
             327     23.9282E+06     9.16088E+06              0.    -3.17476E+06
             328     24.0967E+06     10.7596E+06              0.    -3.25045E+06
             329     13.8984E+06     7.26373E+06              0.     25.0695E+06
             330     16.7768E+06     12.6327E+06              0.     25.9506E+06
             331     19.7658E+06     15.1931E+06              0.     29.3656E+06
             332     22.6291E+06     16.1639E+06              0.     31.5214E+06
             333     25.1605E+06     16.1463E+06              0.     32.5061E+06
             334     27.2321E+06     15.6012E+06              0.     32.5245E+06
             335     28.8008E+06     14.8250E+06              0.     31.8210E+06
             336     29.8919E+06     13.9808E+06              0.     30.6229E+06
             337     30.5713E+06     13.1448E+06              0.     29.1134E+06
             338     30.9205E+06     12.3458E+06              0.     27.4276E+06
             339     31.0187E+06     11.5899E+06              0.     25.6593E+06
             340     30.9347E+06     10.8743E+06              0.     23.8720E+06
             341     30.7242E+06     10.1939E+06              0.     22.1071E+06
             342     30.4300E+06     9.54411E+06              0.     20.3916E+06
             343     30.0846E+06     8.92169E+06              0.     18.7424E+06
             344     29.7117E+06     8.32504E+06              0.     17.1698E+06
             345     29.3288E+06     7.75384E+06              0.     15.6793E+06
             346     28.9483E+06     7.20872E+06              0.     14.2733E+06
             347     28.5790E+06     6.69102E+06              0.     12.9518E+06
             348     28.2271E+06     6.20248E+06              0.     11.7130E+06
             349     27.8969E+06     5.74513E+06              0.     10.5539E+06
             350     27.5910E+06     5.32121E+06              0.     9.47014E+06
             351     27.3112E+06     4.93308E+06              0.     8.45677E+06
             352     27.0585E+06     4.58332E+06              0.     7.50796E+06
             353     26.8330E+06     4.27477E+06              0.     6.61731E+06
             354     26.6343E+06     4.01073E+06              0.     5.77789E+06
             355     26.4613E+06     3.79509E+06              0.     4.98238E+06
             356     26.3122E+06     3.63268E+06              0.     4.22318E+06
             357     26.1839E+06     3.52949E+06              0.     3.49265E+06
             358     26.0720E+06     3.49317E+06              0.     2.78343E+06
             359     25.9702E+06     3.53332E+06              0.     2.08895E+06
             360     25.8699E+06     3.66191E+06              0.     1.40432E+06
             361     25.7601E+06     3.89337E+06              0.     727.612E+03
             362     25.6272E+06     4.24415E+06              0.     61.5438E+03
             363     25.4565E+06     4.73114E+06              0.    -584.440E+03
             364     25.2345E+06     5.36822E+06              0.    -1.19254E+06
             365     24.9524E+06     6.16060E+06              0.    -1.73659E+06
             366     24.6091E+06     7.09808E+06              0.    -2.18529E+06
             367     24.2131E+06     8.15077E+06              0.    -2.50916E+06
             368     23.7795E+06     9.27247E+06              0.    -2.68936E+06
             369     23.9278E+06     10.6809E+06              0.    -2.75395E+06
             370     4.38430E+06     2.91215E+06              0.     22.5550E+06
             371     7.36659E+06     9.08650E+06              0.     23.4566E+06
             372     10.1951E+06     12.6582E+06              0.     26.6613E+06
             373     13.0276E+06     14.6877E+06              0.     28.8722E+06
             374     15.6939E+06     15.6217E+06              0.     30.1146E+06
             375     18.0706E+06     15.8401E+06              0.     30.5060E+06
             376     20.0904E+06     15.6247E+06              0.     30.2105E+06
             377     21.7379E+06     15.1634E+06              0.     29.3996E+06
             378     23.0351E+06     14.5706E+06              0.     28.2268E+06
             379     24.0252E+06     13.9119E+06              0.     26.8175E+06
             380     24.7597E+06     13.2233E+06              0.     25.2675E+06
             381     25.2888E+06     12.5242E+06              0.     23.6474E+06
             382     25.6574E+06     11.8254E+06              0.     22.0078E+06
             383     25.9032E+06     11.1335E+06              0.     20.3839E+06
             384     26.0567E+06     10.4535E+06              0.     18.8000E+06
             385     26.1419E+06     9.78925E+06              0.     17.2725E+06
             386     26.1775E+06     9.14467E+06              0.     15.8115E+06
             387     26.1779E+06     8.52340E+06              0.     14.4233E+06
             388     26.1542E+06     7.92908E+06              0.     13.1106E+06
             389     26.1147E+06     7.36521E+06              0.     11.8738E+06
             390     26.0659E+06     6.83523E+06              0.     10.7116E+06
             391     26.0124E+06     6.34246E+06              0.     9.62096E+06
             392     25.9580E+06     5.89019E+06              0.     8.59791E+06
             393     25.9052E+06     5.48174E+06              0.     7.63752E+06
             394     25.8556E+06     5.12054E+06              0.     6.73416E+06
             395     25.8101E+06     4.81035E+06              0.     5.88168E+06
             396     25.7686E+06     4.55541E+06              0.     5.07360E+06
             397       25.73E+06     4.36064E+06              0.     4.30334E+06
             398     25.6922E+06     4.23193E+06              0.     3.56448E+06
             399     25.6516E+06     4.17635E+06              0.     2.85122E+06
             400     25.6032E+06     4.20235E+06              0.     2.15892E+06
             401     25.5399E+06     4.31982E+06              0.     1.48492E+06
             402     25.4534E+06     4.53980E+06              0.     829.524E+03
             403     25.3342E+06     4.87368E+06              0.     197.262E+03
             404     25.1728E+06     5.33149E+06              0.    -402.078E+03
             405     24.9620E+06     5.91915E+06              0.    -952.968E+03
             406     24.6983E+06     6.63490E+06              0.    -1.43501E+06
             407     24.3842E+06     7.46602E+06              0.    -1.82569E+06
             408     24.0278E+06     8.38792E+06              0.    -2.10484E+06
             409     23.6415E+06     9.36776E+06              0.    -2.25929E+06
             410     23.7723E+06     10.6091E+06              0.    -2.31599E+06
             411    -3.70711E+06    -847.669E+03              0.     20.2054E+06
             412    -657.690E+03     5.92318E+06              0.     21.0835E+06
             413     2.02147E+06     10.2625E+06              0.     24.0301E+06
             414     4.79088E+06     13.1290E+06              0.     26.1848E+06
             415     7.51020E+06     14.8600E+06              0.     27.5418E+06
             416     10.0667E+06     15.7641E+06              0.     28.1655E+06
             417     12.3849E+06     16.0938E+06              0.     28.1641E+06
             418     14.4271E+06     16.0379E+06              0.     27.6630E+06
             419     16.1866E+06     15.7290E+06              0.     26.7852E+06
             420     17.6785E+06     15.2561E+06              0.     25.6393E+06
             421     18.9301E+06     14.6778E+06              0.     24.3150E+06
             422     19.9735E+06     14.0327E+06              0.     22.8830E+06
             423     20.8410E+06     13.3468E+06              0.     21.3973E+06
             424     21.5622E+06     12.6383E+06              0.     19.8979E+06
             425     22.1630E+06     11.9209E+06              0.      18.414E+06
             426     22.6649E+06     11.2052E+06              0.     16.9663E+06
             427     23.0859E+06     10.4999E+06              0.     15.5689E+06
             428     23.4407E+06     9.81238E+06              0.     14.2310E+06
             429     23.7410E+06     9.14924E+06              0.     12.9582E+06
             430     23.9965E+06     8.51618E+06              0.     11.7528E+06
             431     24.2149E+06     7.91837E+06              0.     10.6152E+06
             432     24.4022E+06     7.36051E+06              0.     9.54378E+06
             433     24.5636E+06     6.84695E+06              0.     8.53569E+06
             434     24.7028E+06     6.38185E+06              0.     7.58701E+06
             435     24.8226E+06     5.96929E+06              0.     6.69305E+06
             436     24.9251E+06     5.61346E+06              0.     5.84858E+06
             437     25.0111E+06     5.31879E+06              0.     5.04808E+06
             438     25.0807E+06     5.09021E+06              0.     4.28607E+06
             439     25.1325E+06     4.93321E+06              0.     3.55736E+06
             440     25.1644E+06     4.85405E+06              0.     2.85756E+06
             441     25.1727E+06     4.85975E+06              0.     2.18357E+06
             442     25.1525E+06     4.95794E+06              0.     1.53425E+06
             443     25.0982E+06     5.15643E+06              0.     911.211E+03
             444     25.0040E+06     5.46230E+06              0.     319.517E+03
             445     24.8646E+06     5.88046E+06              0.    -231.826E+03
             446     24.6769E+06     6.41172E+06              0.    -729.952E+03
             447     24.4412E+06     7.05065E+06              0.    -1.15915E+06
             448     24.1616E+06     7.78420E+06              0.    -1.50290E+06
             449     23.8461E+06       8.592E+06              0.    -1.74661E+06
             450     23.5055E+06     9.44924E+06              0.    -1.87999E+06
             451     23.6207E+06     10.5398E+06              0.    -1.93041E+06
             452    -10.6087E+06    -4.09798E+06              0.     17.9739E+06
             453    -7.51270E+06     3.12537E+06              0.     18.8014E+06
             454    -4.96431E+06     8.05763E+06              0.     21.4654E+06
             455    -2.26904E+06     11.5894E+06              0.     23.4941E+06
             456     457.597E+03     13.9805E+06              0.     24.8672E+06
             457     3.11558E+06     15.4820E+06              0.     25.6173E+06
             458     5.62909E+06     16.3142E+06              0.     25.8144E+06
             459     7.94917E+06     16.6558E+06              0.     25.5488E+06
             460     10.0515E+06     16.6445E+06              0.     24.9159E+06
             461     11.9311E+06     16.3820E+06              0.     24.0061E+06
             462     13.5965E+06     15.9426E+06              0.     22.8986E+06
             463     15.0638E+06     15.3797E+06              0.     21.6596E+06
             464     16.3530E+06     14.7323E+06              0.     20.3425E+06
             465     17.4846E+06     14.0297E+06              0.     18.9884E+06
             466     18.4783E+06     13.2940E+06              0.     17.6291E+06
             467     19.3518E+06     12.5426E+06              0.     16.2878E+06
             468     20.1208E+06     11.7898E+06              0.     14.9813E+06
             469     20.7987E+06     11.0470E+06              0.     13.7212E+06
             470     21.3970E+06     10.3240E+06              0.     12.5150E+06
             471     21.9257E+06     9.62923E+06              0.     11.3669E+06
             472     22.3930E+06     8.96973E+06              0.     10.2788E+06
             473     22.8058E+06     8.35180E+06              0.     9.25045E+06
             474     23.1699E+06     7.78100E+06              0.     8.28004E+06
             475     23.4902E+06     7.26241E+06              0.     7.36473E+06
             476     23.7705E+06     6.80077E+06              0.     6.50081E+06
             477     24.0137E+06     6.40067E+06              0.     5.68403E+06
             478     24.2216E+06     6.06671E+06              0.     4.90987E+06
             479     24.3953E+06     5.80366E+06              0.     4.17389E+06
             480     24.5347E+06     5.61650E+06              0.     3.47207E+06
             481     24.6389E+06     5.51056E+06              0.     2.80116E+06
             482     24.7058E+06     5.49136E+06              0.     2.15922E+06
             483     24.7327E+06     5.56439E+06              0.     1.54611E+06
             484     24.7167E+06     5.73466E+06              0.     964.008E+03
             485     24.6547E+06     6.00582E+06              0.     417.815E+03
             486     24.5450E+06     6.37913E+06              0.    -84.6689E+03
             487     24.3873E+06     6.85211E+06              0.    -533.050E+03
             488     24.1842E+06     7.41744E+06              0.    -915.209E+03
             489     23.9411E+06     8.06239E+06              0.    -1.21870E+06
             490     23.6661E+06     8.76946E+06              0.    -1.43238E+06
             491     23.3688E+06     9.51849E+06              0.    -1.54759E+06
             492     23.4697E+06     10.4714E+06              0.    -1.59257E+06
             493    -16.4794E+06    -6.89461E+06              0.     15.8283E+06
             494    -13.3524E+06     675.939E+03              0.     16.5878E+06
             495    -10.9183E+06     6.07065E+06              0.     18.9576E+06
             496    -8.29809E+06     10.1329E+06              0.     20.8162E+06
             497    -5.58855E+06     13.0668E+06              0.     22.1374E+06
             498    -2.87776E+06     15.0785E+06              0.     22.9352E+06
             499    -238.309E+03     16.3583E+06              0.     23.2541E+06
             500     2.27615E+06     17.0706E+06              0.     23.1583E+06
             501     4.63078E+06     17.3508E+06              0.     22.7203E+06
             502     6.80717E+06     17.3062E+06              0.     22.0132E+06
             503     8.79960E+06     17.0203E+06              0.     21.1044E+06
             504     10.6113E+06     16.5576E+06              0.     20.0530E+06
             505     12.2512E+06     15.9674E+06              0.     18.9085E+06
             506     13.7309E+06     15.2883E+06              0.     17.7112E+06
             507     15.0636E+06     14.5504E+06              0.     16.4925E+06
             508     16.2622E+06     13.7779E+06              0.     15.2769E+06
             509     17.3393E+06     12.9900E+06              0.     14.0825E+06
             510     18.3062E+06     12.2029E+06              0.     12.9223E+06
             511     19.1735E+06     11.4296E+06              0.     11.8052E+06
             512     19.9503E+06     10.6811E+06              0.     10.7368E+06
             513     20.6450E+06     9.96691E+06              0.     9.72013E+06
             514     21.2648E+06     9.29482E+06              0.     8.75600E+06
             515     21.8160E+06     8.67174E+06              0.     7.84376E+06
             516     22.3041E+06     8.10371E+06              0.     6.98150E+06
             517     22.7335E+06     7.59615E+06              0.     6.16646E+06
             518     23.1080E+06     7.15403E+06              0.     5.39533E+06
             519     23.4304E+06     6.78207E+06              0.     4.66456E+06
             520     23.7027E+06     6.48482E+06              0.     3.97067E+06
             521     23.9260E+06     6.26674E+06              0.     3.31060E+06
             522     24.1006E+06     6.13218E+06              0.     2.68207E+06
             523     24.2263E+06     6.08527E+06              0.     2.08393E+06
             524     24.3021E+06     6.12964E+06              0.     1.51661E+06
             525     24.3274E+06     6.26794E+06              0.     982.421E+03
             526     24.3017E+06     6.50126E+06              0.     485.769E+03
             527     24.2255E+06     6.82824E+06              0.     33.1728E+03
             528     24.1009E+06     7.24433E+06              0.    -367.070E+03
             529     23.9322E+06     7.74112E+06              0.    -705.547E+03
             530     23.7255E+06     8.30624E+06              0.    -972.641E+03
             531     23.4891E+06     8.92399E+06              0.    -1.15947E+06
             532     23.2323E+06     9.57676E+06              0.    -1.25846E+06
             533     23.3199E+06     10.4041E+06              0.    -1.29838E+06
             534    -21.4458E+06     -9.2835E+06              0.     13.7471E+06
             535    -18.2971E+06    -1.44389E+06              0.     14.4268E+06
             536    -15.9599E+06     4.31433E+06              0.     16.4976E+06
             537    -13.4100E+06     8.80003E+06              0.     18.1574E+06
             538    -10.7293E+06     12.1774E+06              0.     19.3795E+06
             539    -7.99547E+06     14.6177E+06              0.     20.1670E+06
             540    -5.27640E+06     16.2859E+06              0.     20.5475E+06
             541    -2.62697E+06     17.3314E+06              0.     20.5662E+06
             542    -87.8076E+03     17.8837E+06              0.     20.2775E+06
             543     2.31381E+06     18.0508E+06              0.     19.7391E+06
             544     4.56202E+06     17.9215E+06              0.     19.0067E+06
             545     6.64987E+06     17.5673E+06              0.     18.1312E+06
             546     8.57690E+06     17.0455E+06              0.     17.1566E+06
             547     10.3471E+06     16.4023E+06              0.     16.1200E+06
             548     11.9670E+06     15.6748E+06              0.     15.0516E+06
             549     13.4449E+06     14.8930E+06              0.     13.9750E+06
             550     14.7896E+06     14.0813E+06              0.     12.9085E+06
             551     16.0100E+06     13.2600E+06              0.     11.8656E+06
             552     17.1150E+06     12.4456E+06              0.     10.8560E+06
             553     18.1128E+06     11.6518E+06              0.     9.88598E+06
             554     19.0111E+06     10.8902E+06              0.     8.95942E+06
             555     19.8172E+06     10.1704E+06              0.     8.07806E+06
             556     20.5374E+06     9.50062E+06              0.     7.24205E+06
             557     21.1777E+06     8.88790E+06              0.     6.45032E+06
             558     21.7430E+06     8.33832E+06              0.     5.70098E+06
             559     22.2377E+06     7.85722E+06              0.     4.99155E+06
             560     22.6654E+06     7.44942E+06              0.     4.31935E+06
             561     23.0291E+06     7.11925E+06              0.     3.68175E+06
             562     23.3309E+06     6.87065E+06              0.     3.07649E+06
             563     23.5725E+06     6.70708E+06              0.     2.50199E+06
             564     23.7550E+06     6.63144E+06              0.     1.95767E+06
             565     23.8793E+06     6.64579E+06              0.     1.44423E+06
             566     23.9465E+06     6.75096E+06              0.     963.855E+03
             567     23.9580E+06     6.94605E+06              0.     520.330E+03
             568     23.9165E+06     7.22791E+06              0.     118.978E+03
             569     23.8256E+06     7.59058E+06              0.    -233.620E+03
             570     23.6906E+06     8.02498E+06              0.    -530.102E+03
             571     23.5187E+06     8.51897E+06              0.    -762.892E+03
             572     23.3181E+06     9.05782E+06              0.    -924.729E+03
             573     23.0985E+06     9.62514E+06              0.    -1.00890E+06
             574     23.1742E+06     10.3388E+06              0.    -1.04393E+06
             575    -25.6007E+06    -11.2983E+06              0.     11.7137E+06
             576    -22.4370E+06    -3.24966E+06              0.     12.3058E+06
             577    -20.1808E+06     2.79403E+06              0.     14.0766E+06
             578    -17.6937E+06     7.61650E+06              0.     15.5194E+06
             579    -15.0459E+06     11.3528E+06              0.     16.6093E+06
             580    -12.3064E+06     14.1476E+06              0.     17.3437E+06
             581    -9.53842E+06     16.1451E+06              0.     17.7394E+06
             582    -6.79607E+06     17.4809E+06              0.     17.8275E+06
             583    -4.12292E+06     18.2770E+06              0.     17.6486E+06
             584    -1.55186E+06     18.6401E+06              0.     17.2472E+06
             585     894.104E+03     18.6607E+06              0.     16.6682E+06
             586     3.20033E+06     18.4150E+06              0.     15.9540E+06
             587     5.35893E+06     17.9661E+06              0.     15.1424E+06
             588     7.36715E+06     17.3658E+06              0.     14.2660E+06
             589     9.22597E+06     16.6570E+06              0.     13.3523E+06
             590     10.9389E+06     15.8750E+06              0.     12.4231E+06
             591     12.5113E+06     15.0488E+06              0.     11.4958E+06
             592     13.9492E+06     14.2023E+06              0.     10.5836E+06
             593     15.2597E+06     13.3552E+06              0.     9.69604E+06
             594     16.4498E+06     12.5241E+06              0.     8.83980E+06
             595     17.5263E+06     11.7225E+06              0.     8.01912E+06
             596     18.4961E+06     10.9617E+06              0.     7.23629E+06
             597     19.3656E+06     10.2513E+06              0.     6.49207E+06
             598     20.1407E+06     9.59916E+06              0.     5.78607E+06
             599     20.8269E+06     9.01208E+06              0.     5.11708E+06
             600     21.4291E+06     8.49578E+06              0.     4.48338E+06
             601     21.9515E+06     8.05514E+06              0.     3.88299E+06
             602     22.3978E+06     7.69429E+06              0.     3.31401E+06
             603     22.7712E+06     7.41671E+06              0.     2.77480E+06
             604     23.0745E+06     7.22511E+06              0.     2.26433E+06
             605     23.3101E+06     7.12135E+06              0.     1.78236E+06
             606     23.4803E+06     7.10622E+06              0.     1.32966E+06
             607     23.5878E+06     7.17914E+06              0.     908.193E+03
             608     23.6356E+06     7.33777E+06              0.     521.083E+03
             609     23.6276E+06     7.57763E+06              0.     172.601E+03
             610     23.5688E+06     7.89180E+06              0.    -132.075E+03
             611     23.4657E+06     8.27073E+06              0.    -387.170E+03
             612     23.3256E+06     8.70233E+06              0.    -586.666E+03
             613     23.1576E+06     9.17228E+06              0.    -724.571E+03
             614     22.9713E+06     9.66465E+06              0.    -794.980E+03
             615     23.0362E+06     10.2772E+06              0.    -825.153E+03
             616    -29.0157E+06    -12.9655E+06              0.     9.71601E+06
             617    -25.8414E+06    -4.75526E+06              0.     10.2153E+06
             618    -23.6517E+06     1.51107E+06              0.     11.6870E+06
             619    -21.2183E+06     6.59861E+06              0.     12.9010E+06
             620    -18.6028E+06     10.6212E+06              0.     13.8356E+06
             621    -15.8672E+06     13.7035E+06              0.     14.4856E+06
             622    -13.0702E+06     15.9733E+06              0.     14.8609E+06
             623    -10.2646E+06     17.5541E+06              0.     14.9827E+06
             624    -7.49515E+06     18.5608E+06              0.     14.8806E+06
             625    -4.79810E+06     19.0971E+06              0.     14.5884E+06
             626    -2.20140E+06     19.2539E+06              0.     14.1412E+06
             627     274.688E+03     19.1100E+06              0.     13.5732E+06
             628     2.61650E+06     18.7321E+06              0.     12.9157E+06
             629     4.81585E+06     18.1767E+06              0.     12.1962E+06
             630     6.86886E+06     17.4913E+06              0.     11.4383E+06
             631     8.77499E+06     16.7152E+06              0.     10.6614E+06
             632     10.5362E+06     15.8813E+06              0.     9.88113E+06
             633     12.1561E+06     15.0171E+06              0.     9.10941E+06
             634     13.6396E+06     14.1450E+06              0.     8.35527E+06
             635     14.9924E+06     13.2840E+06              0.     7.62510E+06
             636     16.2206E+06     12.4495E+06              0.     6.92316E+06
             637     17.3304E+06     11.6545E+06              0.     6.25194E+06
             638     18.3279E+06     10.9097E+06              0.     5.61258E+06
             639     19.2193E+06     10.2238E+06              0.     5.00516E+06
             640     20.0100E+06     9.60427E+06              0.     4.42900E+06
             641     20.7054E+06     9.05715E+06              0.     3.88296E+06
             642     21.3103E+06     8.58741E+06              0.     3.36567E+06
             643     21.8290E+06     8.19904E+06              0.     2.87577E+06
             644     22.2657E+06     7.89509E+06              0.     2.41214E+06
             645     22.6239E+06     7.67767E+06              0.     1.97412E+06
             646     22.9071E+06     7.54782E+06              0.     1.56166E+06
             647     23.1191E+06     7.50533E+06              0.     1.17554E+06
             648     23.2634E+06     7.54854E+06              0.     817.366E+03
             649     23.3445E+06     7.67404E+06              0.     489.674E+03
             650     23.3673E+06     7.87643E+06              0.     195.810E+03
             651     23.3379E+06     8.14808E+06              0.    -60.2022E+03
             652     23.2632E+06     8.47906E+06              0.    -273.868E+03
             653     23.1515E+06     8.85718E+06              0.    -440.428E+03
             654     23.0120E+06     9.26822E+06              0.    -554.982E+03
             655     22.8547E+06     9.69625E+06              0.    -612.465E+03
             656     22.9103E+06     10.2212E+06              0.    -637.750E+03
             657    -31.7446E+06    -14.3050E+06              0.     7.74494E+06
             658    -28.5633E+06    -5.97205E+06              0.     8.14776E+06
             659    -26.4264E+06     464.748E+03              0.     9.32201E+06
             660    -24.0371E+06     5.75666E+06              0.     10.2996E+06
             661    -21.4505E+06     10.0022E+06              0.     11.0628E+06
             662    -18.7231E+06     13.3114E+06              0.     11.6059E+06
             663    -15.9099E+06     15.7990E+06              0.     11.9341E+06
             664    -13.0620E+06     17.5790E+06              0.     12.0618E+06
             665    -10.2243E+06     18.7600E+06              0.     12.0101E+06
             666    -7.43528E+06     19.4423E+06              0.     11.8038E+06
             667    -4.72608E+06     19.7163E+06              0.     11.4696E+06
             668    -2.12098E+06     19.6619E+06              0.     11.0337E+06
             669     362.039E+03     19.3485E+06              0.     10.5209E+06
             670     2.71054E+06     18.8358E+06              0.     9.95354E+06
             671     4.91674E+06     18.1745E+06              0.     9.35071E+06
             672     6.97669E+06     17.4075E+06              0.     8.72860E+06
             673     8.88942E+06     16.5709E+06              0.     8.10032E+06
             674     10.6563E+06     15.6948E+06              0.     7.47617E+06
             675     12.2806E+06     14.8042E+06              0.     6.86399E+06
             676     13.7664E+06     13.9200E+06              0.     6.26946E+06
             677     15.1191E+06     13.0595E+06              0.     5.69647E+06
             678     16.3442E+06     12.2369E+06              0.     5.14743E+06
             679     17.4476E+06     11.4640E+06              0.     4.62358E+06
             680     18.4353E+06     10.7503E+06              0.     4.12529E+06
             681     19.3130E+06     10.1038E+06              0.     3.65224E+06
             682     20.0863E+06     9.53076E+06              0.     3.20374E+06
             683     20.7603E+06     9.03632E+06              0.     2.77886E+06
             684     21.3401E+06     8.62434E+06              0.     2.37669E+06
             685     21.8302E+06     8.29756E+06              0.     1.99649E+06
             686     22.2352E+06     8.05760E+06              0.     1.63784E+06
             687     22.5594E+06     7.90485E+06              0.     1.30083E+06
             688     22.8074E+06     7.83838E+06              0.     986.095E+03
             689     22.9837E+06     7.85571E+06              0.     694.948E+03
             690     23.0938E+06     7.95266E+06              0.     429.337E+03
             691     23.1434E+06     8.12316E+06              0.     191.810E+03
             692     23.1393E+06     8.35904E+06              0.    -14.5875E+03
             693     23.0890E+06     8.65007E+06              0.    -186.435E+03
             694     23.0013E+06     8.98389E+06              0.    -320.054E+03
             695     22.8857E+06     9.34618E+06              0.    -411.555E+03
             696     22.7529E+06     9.72082E+06              0.    -456.773E+03
             697     22.8007E+06     10.1725E+06              0.     -477.11E+03
             698    -33.8287E+06    -15.3324E+06              0.     5.79324E+06
             699    -30.6425E+06    -6.90926E+06              0.     6.09716E+06
             700    -28.5458E+06    -346.549E+03              0.     6.97586E+06
             701    -26.1908E+06     5.09706E+06              0.     7.71232E+06
             702    -23.6279E+06     9.50937E+06              0.     8.29302E+06
             703    -20.9096E+06     12.9898E+06              0.     8.71285E+06
             704    -18.0880E+06     15.6436E+06              0.     8.97453E+06
             705    -15.2124E+06     17.5775E+06              0.     9.08738E+06
             706    -12.3279E+06     18.8948E+06              0.     9.06567E+06
             707    -9.47383E+06     19.6929E+06              0.     8.92685E+06
             708    -6.68361E+06     20.0613E+06              0.     8.68996E+06
             709    -3.98423E+06     20.0802E+06              0.     8.37418E+06
             710    -1.39678E+06     19.8208E+06              0.     7.99781E+06
             711     1.06317E+06     19.3448E+06              0.     7.57751E+06
             712     3.38486E+06     18.7056E+06              0.     7.12793E+06
             713     5.56164E+06     17.9484E+06              0.     6.66146E+06
             714     7.59027E+06     17.1119E+06              0.     6.18833E+06
             715     9.47023E+06     16.2283E+06              0.     5.71664E+06
             716     11.2032E+06     15.3246E+06              0.     5.25263E+06
             717     12.7922E+06     14.4234E+06              0.     4.80090E+06
             718     14.2419E+06     13.5433E+06              0.     4.36467E+06
             719     15.5571E+06     12.6995E+06              0.     3.94599E+06
             720     16.7435E+06     11.9048E+06              0.     3.54600E+06
             721     17.8070E+06     11.1694E+06              0.     3.16514E+06
             722     18.7532E+06     10.5016E+06              0.     2.80334E+06
             723     19.5880E+06     9.90799E+06              0.     2.46019E+06
             724     20.3168E+06     9.39379E+06              0.     2.13512E+06
             725     20.9451E+06     8.96277E+06              0.     1.82755E+06
             726     21.4780E+06     8.61744E+06              0.     1.53700E+06
             727     21.9205E+06     8.35907E+06              0.     1.26323E+06
             728     22.2777E+06     8.18758E+06              0.     1.00636E+06
             729     22.5548E+06     8.10149E+06              0.     766.897E+03
             730     22.7573E+06     8.09775E+06              0.     545.814E+03
             731     22.8909E+06     8.17164E+06              0.     344.530E+03
             732     22.9622E+06     8.31659E+06              0.     164.884E+03
             733     22.9786E+06     8.52407E+06              0.     9.06996E+03
             734     22.9480E+06     8.78356E+06              0.    -120.438E+03
             735     22.8795E+06     9.08255E+06              0.    -220.940E+03
             736     22.7830E+06     9.40653E+06              0.    -289.522E+03
             737     22.6695E+06     9.73909E+06              0.    -322.991E+03
             738     22.7111E+06     10.1327E+06              0.    -338.315E+03
             739    -35.2973E+06    -16.0586E+06              0.     3.85506E+06
             740    -32.1080E+06    -7.57377E+06              0.     4.05848E+06
             741    -30.0395E+06    -924.536E+03              0.     4.64327E+06
             742    -27.7090E+06     4.62373E+06              0.     5.13563E+06
             743    -25.1637E+06     9.15171E+06              0.     5.52646E+06
             744    -22.4532E+06     12.7516E+06              0.     5.81204E+06
             745    -19.6275E+06     15.5225E+06              0.     5.99361E+06
             746    -16.7349E+06     17.5655E+06              0.     6.07672E+06
             747    -13.8200E+06     18.9804E+06              0.     6.07023E+06
             748    -10.9229E+06     19.8623E+06              0.     5.98520E+06
             749    -8.07813E+06     20.2997E+06              0.     5.83387E+06
             750    -5.31460E+06     20.3729E+06              0.     5.62874E+06
             751    -2.65542E+06     20.1540E+06              0.     5.38186E+06
             752    -118.322E+03     19.7062E+06              0.     5.10434E+06
             753     2.28384E+06     19.0844E+06              0.     4.80600E+06
             754     4.54251E+06     18.3358E+06              0.     4.49525E+06
             755     6.65278E+06     17.5006E+06              0.     4.17906E+06
             756     8.61274E+06     16.6126E+06              0.     3.86303E+06
             757     10.4229E+06     15.7004E+06              0.     3.55148E+06
             758     12.0855E+06     14.7875E+06              0.     3.24764E+06
             759     13.6044E+06     13.8936E+06              0.     2.95380E+06
             760     14.9842E+06      13.035E+06              0.     2.67144E+06
             761     16.2302E+06     12.2248E+06              0.     2.40143E+06
             762     17.3482E+06     11.4738E+06              0.     2.14416E+06
             763     18.3438E+06     10.7906E+06              0.     1.89963E+06
             764     19.2230E+06     10.1822E+06              0.     1.66766E+06
             765     19.9916E+06     9.65356E+06              0.     1.44791E+06
             766     20.6551E+06     9.20858E+06              0.     1.24004E+06
             767     21.2191E+06     8.84959E+06              0.     1.04378E+06
             768     21.6891E+06     8.57761E+06              0.     858.996E+03
             769     22.0705E+06     8.39223E+06              0.     685.792E+03
             770     22.3690E+06     8.29162E+06              0.     524.520E+03
             771     22.5906E+06     8.27235E+06              0.     375.821E+03
             772     22.7417E+06     8.32932E+06              0.     240.623E+03
             773     22.8290E+06     8.45563E+06              0.     120.116E+03
             774     22.8604E+06     8.64250E+06              0.     15.7244E+03
             775     22.8442E+06     8.87923E+06              0.    -70.9406E+03
             776     22.7896E+06     9.15312E+06              0.    -138.103E+03
             777     22.7070E+06     9.44950E+06              0.    -183.817E+03
             778     22.6076E+06     9.75168E+06              0.    -205.918E+03
             779     22.6446E+06     10.1032E+06              0.    -216.170E+03
             780    -36.1707E+06    -16.4914E+06              0.     1.92546E+06
             781    -32.9796E+06    -7.97056E+06              0.     2.02739E+06
             782    -30.9279E+06    -1.27069E+06              0.     2.31948E+06
             783    -28.6121E+06     4.33895E+06              0.     2.56603E+06
             784    -26.0775E+06     8.93498E+06              0.     2.76252E+06
             785    -23.3721E+06     12.6055E+06              0.     2.90695E+06
             786    -20.5448E+06     15.4458E+06              0.     2.99982E+06
             787    -17.6430E+06     17.5541E+06              0.     3.04370E+06
             788    -14.7110E+06     19.0276E+06              0.     3.04282E+06
             789    -11.7894E+06     19.9601E+06              0.     3.00254E+06
             790    -8.91323E+06     20.4395E+06              0.     2.92886E+06
             791    -6.11247E+06     20.5461E+06              0.     2.82793E+06
             792    -3.41139E+06     20.3523E+06              0.     2.70573E+06
             793    -829.003E+03     19.9221E+06              0.     2.56780E+06
             794     1.62063E+06     19.3115E+06              0.     2.41908E+06
             795     3.92780E+06     18.5686E+06              0.     2.26380E+06
             796     6.08658E+06     17.7347E+06              0.     2.10551E+06
             797     8.09421E+06     16.8445E+06              0.     1.94705E+06
             798     9.95048E+06     15.9274E+06              0.     1.79064E+06
             799     11.6572E+06     15.0077E+06              0.     1.63793E+06
             800     13.2176E+06     14.1058E+06              0.     1.49011E+06
             801     14.6362E+06     13.2383E+06              0.     1.34797E+06
             802     15.9181E+06     12.4188E+06              0.     1.21198E+06
             803     17.0689E+06     11.6585E+06              0.     1.08233E+06
             804     18.0944E+06     10.9661E+06              0.     959.079E+03
             805     19.0005E+06     10.3486E+06              0.     842.134E+03
             806     19.7931E+06     9.81119E+06              0.     731.351E+03
             807     20.4779E+06     9.35770E+06              0.     626.571E+03
             808     21.0609E+06     8.99035E+06              0.     527.671E+03
             809     21.5475E+06     8.71001E+06              0.     434.600E+03
             810     21.9437E+06     8.51610E+06              0.     347.411E+03
             811     22.2554E+06     8.40658E+06              0.     266.284E+03
             812     22.4887E+06     8.37780E+06              0.     191.539E+03
             813     22.6504E+06     8.42444E+06              0.     123.633E+03
             814     22.7476E+06     8.53942E+06              0.     63.1516E+03
             815     22.7881E+06     8.71381E+06              0.     10.7949E+03
             816     22.7807E+06     8.93677E+06              0.    -32.6413E+03
             817     22.7346E+06     9.19551E+06              0.    -66.2750E+03
             818     22.6604E+06     9.47523E+06              0.    -89.1326E+03
             819     22.5695E+06     9.75905E+06              0.    -100.120E+03
             820     22.6038E+06     10.0851E+06              0.    -105.257E+03
             821    -36.4605E+06    -16.6352E+06              0.        125.E-03
             822    -33.2690E+06    -8.10250E+06              0.              0.
             823    -31.2228E+06    -1.38596E+06              0.       -62.5E-03
             824    -28.9118E+06     4.24390E+06              0.      -93.75E-03
             825    -26.3808E+06     8.86240E+06              0.              0.
             826    -23.6773E+06     12.5563E+06              0.       -62.5E-03
             827    -20.8495E+06     15.4197E+06              0.      -31.25E-03
             828    -17.9448E+06     17.5495E+06              0.       31.25E-03
             829    -15.0074E+06     19.0426E+06              0.       31.25E-03
             830    -12.0777E+06     19.9921E+06              0.       31.25E-03
             831    -9.19133E+06     20.4855E+06              0.       31.25E-03
             832    -6.37836E+06     20.6034E+06              0.      -31.25E-03
             833    -3.66351E+06     20.4180E+06              0.              0.
             834    -1.06618E+06     19.9939E+06              0.      15.625E-03
             835     1.39914E+06     19.3871E+06              0.     -46.875E-03
             836     3.72236E+06     18.6462E+06              0.      -31.25E-03
             837     5.89724E+06     17.8128E+06              0.     -15.625E-03
             838     7.92070E+06     16.9220E+06              0.      15.625E-03
             839     9.79231E+06     16.0033E+06              0.       31.25E-03
             840     11.5137E+06     15.0814E+06              0.              0.
             841     13.0880E+06     14.1768E+06              0.     -7.8125E-03
             842     14.5195E+06     13.3064E+06              0.     -15.625E-03
             843     15.8134E+06     12.4838E+06              0.     23.4375E-03
             844     16.9751E+06     11.7204E+06              0.      7.8125E-03
             845     18.0106E+06     11.0249E+06              0.      15.625E-03
             846     18.9257E+06     10.4043E+06              0.    -3.90625E-03
             847     19.7263E+06     9.86403E+06              0.              0.
             848     20.4184E+06     9.40767E+06              0.              0.
             849     21.0076E+06     9.03751E+06              0.    -3.90625E-03
             850     21.4999E+06     8.75435E+06              0.              0.
             851     21.9011E+06     8.55758E+06              0.     1.95313E-03
             852     22.2171E+06     8.44505E+06              0.     1.95313E-03
             853     22.4544E+06     8.41306E+06              0.              0.
             854     22.6197E+06     8.45623E+06              0.              0.
             855     22.7202E+06     8.56741E+06              0.              0.
             856     22.7638E+06     8.73762E+06              0.              0.
             857     22.7593E+06     8.95598E+06              0.    -488.281E-06
             858     22.7161E+06     9.20965E+06              0.     488.281E-06
             859     22.6447E+06     9.48379E+06              0.    -244.141E-06
             860     22.5566E+06     9.76147E+06              0.    -244.141E-06
             861     22.5900E+06     10.0790E+06              0.              0.
             862    -36.1707E+06    -16.4914E+06              0.    -1.92546E+06
             863    -32.9796E+06    -7.97056E+06              0.    -2.02739E+06
             864    -30.9279E+06    -1.27069E+06              0.    -2.31948E+06
             865    -28.6121E+06     4.33895E+06              0.    -2.56603E+06
             866    -26.0775E+06     8.93498E+06              0.    -2.76252E+06
             867    -23.3721E+06     12.6055E+06              0.    -2.90695E+06
             868    -20.5448E+06     15.4458E+06              0.    -2.99982E+06
             869    -17.6430E+06     17.5541E+06              0.    -3.04370E+06
             870    -14.7110E+06     19.0276E+06              0.    -3.04282E+06
             871    -11.7894E+06     19.9601E+06              0.    -3.00254E+06
             872    -8.91324E+06     20.4395E+06              0.    -2.92886E+06
             873    -6.11247E+06     20.5461E+06              0.    -2.82793E+06
             874    -3.41139E+06     20.3523E+06              0.    -2.70573E+06
             875    -829.003E+03     19.9221E+06              0.    -2.56780E+06
             876     1.62063E+06     19.3115E+06              0.    -2.41908E+06
             877     3.92780E+06     18.5686E+06              0.    -2.26380E+06
             878     6.08658E+06     17.7347E+06              0.    -2.10551E+06
             879     8.09421E+06     16.8445E+06              0.    -1.94705E+06
             880     9.95048E+06     15.9274E+06              0.    -1.79064E+06
             881     11.6572E+06     15.0077E+06              0.    -1.63793E+06
             882     13.2176E+06     14.1058E+06              0.    -1.49011E+06
             883     14.6362E+06     13.2383E+06              0.    -1.34797E+06
             884     15.9181E+06     12.4188E+06              0.    -1.21198E+06
             885     17.0689E+06     11.6585E+06              0.    -1.08233E+06
             886     18.0944E+06     10.9661E+06              0.    -959.079E+03
             887     19.0005E+06     10.3486E+06              0.    -842.134E+03
             888     19.7931E+06     9.81119E+06              0.    -731.351E+03
             889     20.4779E+06     9.35770E+06              0.    -626.571E+03
             890     21.0609E+06     8.99035E+06              0.    -527.671E+03
             891     21.5475E+06     8.71001E+06              0.    -434.600E+03
             892     21.9437E+06     8.51610E+06              0.    -347.411E+03
             893     22.2554E+06     8.40658E+06              0.    -266.284E+03
             894     22.4887E+06     8.37780E+06              0.    -191.539E+03
             895     22.6504E+06     8.42444E+06              0.    -123.633E+03
             896     22.7476E+06     8.53942E+06              0.    -63.1516E+03
             897     22.7881E+06     8.71381E+06              0.    -10.7949E+03
             898     22.7807E+06     8.93677E+06              0.     32.6413E+03
             899     22.7346E+06     9.19551E+06              0.     66.2750E+03
             900     22.6604E+06     9.47523E+06              0.     89.1326E+03
             901     22.5695E+06     9.75905E+06              0.     100.120E+03
             902     22.6038E+06     10.0851E+06              0.     105.257E+03
             903    -35.2973E+06    -16.0586E+06              0.    -3.85506E+06
             904    -32.1080E+06    -7.57377E+06              0.    -4.05848E+06
             905    -30.0395E+06    -924.536E+03              0.    -4.64327E+06
             906    -27.7090E+06     4.62373E+06              0.    -5.13563E+06
             907    -25.1637E+06     9.15171E+06              0.    -5.52646E+06
             908    -22.4532E+06     12.7516E+06              0.    -5.81204E+06
             909    -19.6275E+06     15.5225E+06              0.    -5.99361E+06
             910    -16.7349E+06     17.5655E+06              0.    -6.07672E+06
             911    -13.8200E+06     18.9804E+06              0.    -6.07023E+06
             912    -10.9229E+06     19.8623E+06              0.    -5.98520E+06
             913    -8.07813E+06     20.2997E+06              0.    -5.83387E+06
             914    -5.31460E+06     20.3729E+06              0.    -5.62874E+06
             915    -2.65542E+06     20.1540E+06              0.    -5.38186E+06
             916    -118.322E+03     19.7062E+06              0.    -5.10434E+06
             917     2.28384E+06     19.0844E+06              0.    -4.80600E+06
             918     4.54251E+06     18.3358E+06              0.    -4.49525E+06
             919     6.65278E+06     17.5006E+06              0.    -4.17906E+06
             920     8.61274E+06     16.6126E+06              0.    -3.86303E+06
             921     10.4229E+06     15.7004E+06              0.    -3.55148E+06
             922     12.0855E+06     14.7875E+06              0.    -3.24764E+06
             923     13.6044E+06     13.8936E+06              0.    -2.95380E+06
             924     14.9842E+06     13.0350E+06              0.    -2.67144E+06
             925     16.2302E+06     12.2248E+06              0.    -2.40143E+06
             926     17.3482E+06     11.4738E+06              0.    -2.14416E+06
             927     18.3438E+06     10.7906E+06              0.    -1.89963E+06
             928     19.2230E+06     10.1822E+06              0.    -1.66766E+06
             929     19.9916E+06     9.65356E+06              0.    -1.44791E+06
             930     20.6551E+06     9.20858E+06              0.    -1.24004E+06
             931     21.2191E+06     8.84959E+06              0.    -1.04378E+06
             932     21.6891E+06     8.57761E+06              0.    -858.996E+03
             933     22.0705E+06     8.39223E+06              0.    -685.792E+03
             934     22.3690E+06     8.29162E+06              0.    -524.520E+03
             935     22.5906E+06     8.27235E+06              0.    -375.821E+03
             936     22.7417E+06     8.32932E+06              0.    -240.623E+03
             937     22.8290E+06     8.45563E+06              0.    -120.116E+03
             938     22.8604E+06     8.64250E+06              0.    -15.7244E+03
             939     22.8442E+06     8.87923E+06              0.     70.9406E+03
             940     22.7896E+06     9.15312E+06              0.     138.103E+03
             941     22.7070E+06     9.44950E+06              0.     183.817E+03
             942     22.6076E+06     9.75168E+06              0.     205.918E+03
             943     22.6446E+06     10.1032E+06              0.     216.170E+03
             944    -33.8287E+06    -15.3324E+06              0.    -5.79324E+06
             945    -30.6425E+06    -6.90926E+06              0.    -6.09716E+06
             946    -28.5458E+06    -346.549E+03              0.    -6.97586E+06
             947    -26.1908E+06     5.09706E+06              0.    -7.71233E+06
             948    -23.6279E+06     9.50937E+06              0.    -8.29302E+06
             949    -20.9096E+06     12.9898E+06              0.    -8.71285E+06
             950    -18.0880E+06     15.6436E+06              0.    -8.97453E+06
             951    -15.2124E+06     17.5775E+06              0.    -9.08738E+06
             952    -12.3279E+06     18.8948E+06              0.    -9.06567E+06
             953    -9.47383E+06     19.6929E+06              0.    -8.92685E+06
             954    -6.68361E+06     20.0613E+06              0.    -8.68996E+06
             955    -3.98423E+06     20.0802E+06              0.    -8.37418E+06
             956    -1.39678E+06     19.8208E+06              0.    -7.99781E+06
             957     1.06317E+06     19.3448E+06              0.    -7.57751E+06
             958     3.38486E+06     18.7056E+06              0.    -7.12793E+06
             959     5.56164E+06     17.9484E+06              0.    -6.66146E+06
             960     7.59027E+06     17.1119E+06              0.    -6.18833E+06
             961     9.47023E+06     16.2283E+06              0.    -5.71664E+06
             962     11.2032E+06     15.3246E+06              0.    -5.25263E+06
             963     12.7922E+06     14.4234E+06              0.    -4.80090E+06
             964     14.2419E+06     13.5433E+06              0.    -4.36467E+06
             965     15.5571E+06     12.6995E+06              0.    -3.94599E+06
             966     16.7435E+06     11.9048E+06              0.    -3.54600E+06
             967     17.8070E+06     11.1694E+06              0.    -3.16514E+06
             968     18.7532E+06     10.5016E+06              0.    -2.80334E+06
             969     19.5880E+06     9.90799E+06              0.    -2.46019E+06
             970     20.3168E+06     9.39379E+06              0.    -2.13512E+06
             971     20.9451E+06     8.96277E+06              0.    -1.82755E+06
             972     21.4780E+06     8.61745E+06              0.    -1.53700E+06
             973     21.9205E+06     8.35907E+06              0.    -1.26323E+06
             974     22.2777E+06     8.18758E+06              0.    -1.00636E+06
             975     22.5548E+06     8.10149E+06              0.    -766.897E+03
             976     22.7573E+06     8.09775E+06              0.    -545.814E+03
             977     22.8909E+06     8.17164E+06              0.    -344.530E+03
             978     22.9622E+06     8.31659E+06              0.    -164.884E+03
             979     22.9786E+06     8.52407E+06              0.    -9.06996E+03
             980     22.9480E+06     8.78356E+06              0.     120.438E+03
             981     22.8795E+06     9.08255E+06              0.     220.940E+03
             982     22.7830E+06     9.40653E+06              0.     289.522E+03
             983     22.6695E+06     9.73909E+06              0.     322.991E+03
             984     22.7111E+06     10.1327E+06              0.     338.315E+03
             985    -31.7446E+06    -14.3050E+06              0.    -7.74494E+06
             986    -28.5633E+06    -5.97205E+06              0.    -8.14776E+06
             987    -26.4264E+06     464.748E+03              0.    -9.32201E+06
             988    -24.0371E+06     5.75666E+06              0.    -10.2996E+06
             989    -21.4505E+06     10.0022E+06              0.    -11.0628E+06
             990    -18.7231E+06     13.3114E+06              0.    -11.6059E+06
             991    -15.9099E+06     15.7990E+06              0.    -11.9341E+06
             992    -13.0620E+06     17.5790E+06              0.    -12.0618E+06
             993    -10.2243E+06     18.7600E+06              0.    -12.0101E+06
             994    -7.43528E+06     19.4423E+06              0.    -11.8038E+06
             995    -4.72608E+06     19.7163E+06              0.    -11.4696E+06
             996    -2.12098E+06     19.6619E+06              0.    -11.0337E+06
             997     362.039E+03     19.3485E+06              0.    -10.5209E+06
             998     2.71054E+06     18.8358E+06              0.    -9.95354E+06
             999     4.91674E+06     18.1745E+06              0.    -9.35071E+06
            1000     6.97669E+06     17.4075E+06              0.    -8.72860E+06
            1001     8.88942E+06     16.5709E+06              0.    -8.10032E+06
            1002     10.6563E+06     15.6948E+06              0.    -7.47617E+06
            1003     12.2806E+06     14.8042E+06              0.    -6.86399E+06
            1004     13.7664E+06     13.9200E+06              0.    -6.26946E+06
            1005     15.1191E+06     13.0595E+06              0.    -5.69647E+06
            1006     16.3442E+06     12.2370E+06              0.    -5.14743E+06
            1007     17.4476E+06     11.4640E+06              0.    -4.62358E+06
            1008     18.4353E+06     10.7503E+06              0.    -4.12529E+06
            1009     19.3130E+06     10.1038E+06              0.    -3.65224E+06
            1010     20.0863E+06     9.53076E+06              0.    -3.20374E+06
            1011     20.7603E+06     9.03632E+06              0.    -2.77886E+06
            1012     21.3401E+06     8.62434E+06              0.    -2.37669E+06
            1013     21.8302E+06     8.29756E+06              0.    -1.99649E+06
            1014     22.2352E+06     8.05760E+06              0.    -1.63784E+06
            1015     22.5594E+06     7.90485E+06              0.    -1.30083E+06
            1016     22.8074E+06     7.83838E+06              0.    -986.095E+03
            1017     22.9837E+06     7.85571E+06              0.    -694.948E+03
            1018     23.0938E+06     7.95266E+06              0.    -429.337E+03
            1019     23.1434E+06     8.12316E+06              0.    -191.810E+03
            1020     23.1393E+06     8.35904E+06              0.     14.5875E+03
            1021     23.0890E+06     8.65007E+06              0.     186.435E+03
            1022     23.0013E+06     8.98389E+06              0.     320.054E+03
            1023     22.8857E+06     9.34618E+06              0.     411.555E+03
            1024     22.7529E+06     9.72082E+06              0.     456.773E+03
            1025     22.8007E+06     10.1725E+06              0.      477.11E+03
            1026    -29.0157E+06    -12.9655E+06              0.    -9.71601E+06
            1027    -25.8414E+06    -4.75526E+06              0.    -10.2153E+06
            1028    -23.6517E+06     1.51107E+06              0.    -11.6870E+06
            1029    -21.2183E+06     6.59861E+06              0.    -12.9010E+06
            1030    -18.6028E+06     10.6212E+06              0.    -13.8356E+06
            1031    -15.8672E+06     13.7035E+06              0.    -14.4856E+06
            1032    -13.0702E+06     15.9733E+06              0.    -14.8609E+06
            1033    -10.2646E+06     17.5541E+06              0.    -14.9827E+06
            1034    -7.49515E+06     18.5608E+06              0.    -14.8806E+06
            1035    -4.79810E+06     19.0971E+06              0.    -14.5884E+06
            1036    -2.20140E+06     19.2539E+06              0.    -14.1412E+06
            1037     274.688E+03     19.1100E+06              0.    -13.5732E+06
            1038     2.61650E+06     18.7321E+06              0.    -12.9157E+06
            1039     4.81585E+06     18.1767E+06              0.    -12.1962E+06
            1040     6.86886E+06     17.4913E+06              0.    -11.4383E+06
            1041     8.77499E+06     16.7152E+06              0.    -10.6614E+06
            1042     10.5362E+06     15.8813E+06              0.    -9.88113E+06
            1043     12.1561E+06     15.0171E+06              0.    -9.10941E+06
            1044     13.6396E+06     14.1450E+06              0.    -8.35527E+06
            1045     14.9924E+06     13.2840E+06              0.    -7.62510E+06
            1046     16.2206E+06     12.4495E+06              0.    -6.92316E+06
            1047     17.3304E+06     11.6545E+06              0.    -6.25194E+06
            1048     18.3279E+06     10.9097E+06              0.    -5.61258E+06
            1049     19.2193E+06     10.2238E+06              0.    -5.00516E+06
            1050     20.0100E+06     9.60427E+06              0.    -4.42900E+06
            1051     20.7054E+06     9.05716E+06              0.    -3.88296E+06
            1052     21.3103E+06     8.58741E+06              0.    -3.36567E+06
            1053     21.8290E+06     8.19904E+06              0.    -2.87577E+06
            1054     22.2657E+06     7.89509E+06              0.    -2.41214E+06
            1055     22.6239E+06     7.67767E+06              0.    -1.97412E+06
            1056     22.9071E+06     7.54782E+06              0.    -1.56166E+06
            1057     23.1191E+06     7.50533E+06              0.    -1.17554E+06
            1058     23.2634E+06     7.54854E+06              0.    -817.366E+03
            1059     23.3445E+06     7.67404E+06              0.    -489.674E+03
            1060     23.3673E+06     7.87643E+06              0.    -195.810E+03
            1061     23.3379E+06     8.14808E+06              0.     60.2022E+03
            1062     23.2632E+06     8.47906E+06              0.     273.868E+03
            1063     23.1515E+06     8.85718E+06              0.     440.428E+03
            1064     23.0120E+06     9.26822E+06              0.     554.982E+03
            1065     22.8547E+06     9.69626E+06              0.     612.465E+03
            1066     22.9103E+06     10.2212E+06              0.     637.750E+03
            1067    -25.6007E+06    -11.2983E+06              0.    -11.7137E+06
            1068    -22.4370E+06    -3.24966E+06              0.    -12.3058E+06
            1069    -20.1808E+06     2.79403E+06              0.    -14.0766E+06
            1070    -17.6937E+06     7.61650E+06              0.    -15.5194E+06
            1071    -15.0459E+06     11.3528E+06              0.    -16.6093E+06
            1072    -12.3064E+06     14.1476E+06              0.    -17.3437E+06
            1073    -9.53843E+06     16.1451E+06              0.    -17.7394E+06
            1074    -6.79607E+06     17.4809E+06              0.    -17.8275E+06
            1075    -4.12292E+06     18.2770E+06              0.    -17.6486E+06
            1076    -1.55186E+06     18.6401E+06              0.    -17.2472E+06
            1077     894.104E+03     18.6607E+06              0.    -16.6682E+06
            1078     3.20033E+06     18.4150E+06              0.    -15.9540E+06
            1079     5.35893E+06     17.9661E+06              0.    -15.1424E+06
            1080     7.36715E+06     17.3658E+06              0.    -14.2660E+06
            1081     9.22597E+06     16.6570E+06              0.    -13.3523E+06
            1082     10.9389E+06     15.8750E+06              0.    -12.4231E+06
            1083     12.5113E+06     15.0488E+06              0.    -11.4958E+06
            1084     13.9492E+06     14.2023E+06              0.    -10.5836E+06
            1085     15.2597E+06     13.3552E+06              0.    -9.69604E+06
            1086     16.4498E+06     12.5241E+06              0.    -8.83980E+06
            1087     17.5263E+06     11.7225E+06              0.    -8.01912E+06
            1088     18.4961E+06     10.9617E+06              0.    -7.23629E+06
            1089     19.3656E+06     10.2513E+06              0.    -6.49207E+06
            1090     20.1407E+06     9.59916E+06              0.    -5.78607E+06
            1091     20.8269E+06     9.01208E+06              0.    -5.11708E+06
            1092     21.4291E+06     8.49578E+06              0.    -4.48338E+06
            1093     21.9515E+06     8.05514E+06              0.    -3.88299E+06
            1094     22.3978E+06     7.69429E+06              0.    -3.31401E+06
            1095     22.7712E+06     7.41671E+06              0.    -2.77480E+06
            1096     23.0745E+06     7.22511E+06              0.    -2.26433E+06
            1097     23.3101E+06     7.12135E+06              0.    -1.78236E+06
            1098     23.4803E+06     7.10622E+06              0.    -1.32966E+06
            1099     23.5878E+06     7.17914E+06              0.    -908.193E+03
            1100     23.6355E+06     7.33777E+06              0.    -521.083E+03
            1101     23.6276E+06     7.57763E+06              0.    -172.601E+03
            1102     23.5688E+06     7.89180E+06              0.     132.075E+03
            1103     23.4657E+06     8.27073E+06              0.     387.170E+03
            1104     23.3256E+06     8.70233E+06              0.     586.666E+03
            1105     23.1576E+06     9.17228E+06              0.     724.571E+03
            1106     22.9713E+06     9.66465E+06              0.     794.980E+03
            1107     23.0362E+06     10.2772E+06              0.     825.153E+03
            1108    -21.4458E+06     -9.2835E+06              0.    -13.7471E+06
            1109    -18.2971E+06    -1.44389E+06              0.    -14.4268E+06
            1110    -15.9599E+06     4.31433E+06              0.    -16.4976E+06
            1111    -13.4100E+06     8.80003E+06              0.    -18.1574E+06
            1112    -10.7293E+06     12.1774E+06              0.    -19.3795E+06
            1113    -7.99546E+06     14.6177E+06              0.    -20.1670E+06
            1114    -5.27640E+06     16.2859E+06              0.    -20.5475E+06
            1115    -2.62697E+06     17.3314E+06              0.    -20.5662E+06
            1116    -87.8077E+03     17.8837E+06              0.    -20.2775E+06
            1117     2.31381E+06     18.0508E+06              0.    -19.7391E+06
            1118     4.56202E+06     17.9215E+06              0.    -19.0067E+06
            1119     6.64987E+06     17.5673E+06              0.    -18.1312E+06
            1120     8.57690E+06     17.0455E+06              0.    -17.1566E+06
            1121     10.3471E+06     16.4023E+06              0.    -16.1200E+06
            1122     11.9670E+06     15.6748E+06              0.    -15.0516E+06
            1123     13.4449E+06     14.8930E+06              0.    -13.9750E+06
            1124     14.7896E+06     14.0813E+06              0.    -12.9085E+06
            1125     16.0100E+06     13.2600E+06              0.    -11.8656E+06
            1126     17.1150E+06     12.4456E+06              0.    -10.8560E+06
            1127     18.1128E+06     11.6518E+06              0.    -9.88598E+06
            1128     19.0111E+06     10.8902E+06              0.    -8.95942E+06
            1129     19.8172E+06     10.1704E+06              0.    -8.07806E+06
            1130     20.5374E+06     9.50062E+06              0.    -7.24205E+06
            1131     21.1777E+06     8.88790E+06              0.    -6.45032E+06
            1132     21.7430E+06     8.33832E+06              0.    -5.70098E+06
            1133     22.2377E+06     7.85722E+06              0.    -4.99155E+06
            1134     22.6654E+06     7.44942E+06              0.    -4.31935E+06
            1135     23.0291E+06     7.11925E+06              0.    -3.68175E+06
            1136     23.3310E+06     6.87065E+06              0.    -3.07649E+06
            1137     23.5725E+06     6.70708E+06              0.    -2.50199E+06
            1138     23.7550E+06     6.63144E+06              0.    -1.95767E+06
            1139     23.8793E+06     6.64579E+06              0.    -1.44423E+06
            1140     23.9465E+06     6.75096E+06              0.    -963.855E+03
            1141     23.9580E+06     6.94605E+06              0.    -520.330E+03
            1142     23.9165E+06     7.22791E+06              0.    -118.978E+03
            1143     23.8256E+06     7.59058E+06              0.     233.620E+03
            1144     23.6906E+06     8.02498E+06              0.     530.101E+03
            1145     23.5187E+06     8.51897E+06              0.     762.892E+03
            1146     23.3181E+06     9.05782E+06              0.     924.729E+03
            1147     23.0985E+06     9.62514E+06              0.     1.00890E+06
            1148     23.1742E+06     10.3388E+06              0.     1.04393E+06
            1149    -16.4794E+06    -6.89461E+06              0.    -15.8283E+06
            1150    -13.3524E+06     675.939E+03              0.    -16.5878E+06
            1151    -10.9183E+06     6.07065E+06              0.    -18.9576E+06
            1152    -8.29809E+06     10.1329E+06              0.    -20.8162E+06
            1153    -5.58855E+06     13.0668E+06              0.    -22.1374E+06
            1154    -2.87776E+06     15.0785E+06              0.    -22.9352E+06
            1155    -238.309E+03     16.3583E+06              0.    -23.2541E+06
            1156     2.27615E+06     17.0706E+06              0.    -23.1583E+06
            1157     4.63078E+06     17.3508E+06              0.    -22.7203E+06
            1158     6.80717E+06     17.3062E+06              0.    -22.0132E+06
            1159     8.79960E+06     17.0203E+06              0.    -21.1044E+06
            1160     10.6113E+06     16.5576E+06              0.    -20.0530E+06
            1161     12.2512E+06     15.9674E+06              0.    -18.9085E+06
            1162     13.7309E+06     15.2883E+06              0.    -17.7112E+06
            1163     15.0636E+06     14.5504E+06              0.    -16.4925E+06
            1164     16.2622E+06     13.7779E+06              0.    -15.2769E+06
            1165     17.3393E+06     12.9900E+06              0.    -14.0825E+06
            1166     18.3062E+06     12.2029E+06              0.    -12.9223E+06
            1167     19.1735E+06     11.4296E+06              0.    -11.8052E+06
            1168     19.9503E+06     10.6811E+06              0.    -10.7368E+06
            1169     20.6450E+06     9.96691E+06              0.    -9.72013E+06
            1170     21.2648E+06     9.29482E+06              0.    -8.75600E+06
            1171     21.8160E+06     8.67174E+06              0.    -7.84376E+06
            1172     22.3041E+06     8.10371E+06              0.    -6.98150E+06
            1173     22.7335E+06     7.59615E+06              0.    -6.16646E+06
            1174     23.1080E+06     7.15403E+06              0.    -5.39533E+06
            1175     23.4304E+06     6.78207E+06              0.    -4.66456E+06
            1176     23.7027E+06     6.48482E+06              0.    -3.97067E+06
            1177     23.9260E+06     6.26674E+06              0.    -3.31060E+06
            1178     24.1006E+06     6.13218E+06              0.    -2.68207E+06
            1179     24.2263E+06     6.08527E+06              0.    -2.08393E+06
            1180     24.3021E+06     6.12964E+06              0.    -1.51661E+06
            1181     24.3274E+06     6.26794E+06              0.    -982.421E+03
            1182     24.3017E+06     6.50126E+06              0.    -485.769E+03
            1183     24.2255E+06     6.82824E+06              0.    -33.1728E+03
            1184     24.1009E+06     7.24433E+06              0.     367.070E+03
            1185     23.9322E+06     7.74112E+06              0.     705.547E+03
            1186     23.7255E+06     8.30624E+06              0.     972.641E+03
            1187     23.4891E+06     8.92399E+06              0.     1.15947E+06
            1188     23.2323E+06     9.57676E+06              0.     1.25846E+06
            1189     23.3199E+06     10.4041E+06              0.     1.29838E+06
            1190    -10.6087E+06    -4.09798E+06              0.    -17.9739E+06
            1191    -7.51270E+06     3.12537E+06              0.    -18.8014E+06
            1192    -4.96431E+06     8.05763E+06              0.    -21.4654E+06
            1193    -2.26904E+06     11.5894E+06              0.    -23.4941E+06
            1194     457.597E+03     13.9805E+06              0.    -24.8672E+06
            1195     3.11558E+06     15.4820E+06              0.    -25.6173E+06
            1196     5.62908E+06     16.3142E+06              0.    -25.8144E+06
            1197     7.94917E+06     16.6558E+06              0.    -25.5488E+06
            1198     10.0515E+06     16.6445E+06              0.    -24.9159E+06
            1199     11.9311E+06     16.3820E+06              0.    -24.0061E+06
            1200     13.5965E+06     15.9426E+06              0.    -22.8986E+06
            1201     15.0638E+06     15.3797E+06              0.    -21.6596E+06
            1202     16.3530E+06     14.7323E+06              0.    -20.3425E+06
            1203     17.4846E+06     14.0297E+06              0.    -18.9884E+06
            1204     18.4783E+06     13.2940E+06              0.    -17.6291E+06
            1205     19.3518E+06     12.5426E+06              0.    -16.2878E+06
            1206     20.1208E+06     11.7898E+06              0.    -14.9813E+06
            1207     20.7987E+06     11.0470E+06              0.    -13.7212E+06
            1208     21.3970E+06     10.3240E+06              0.    -12.5150E+06
            1209     21.9257E+06     9.62923E+06              0.    -11.3669E+06
            1210     22.3930E+06     8.96973E+06              0.    -10.2788E+06
            1211     22.8058E+06     8.35180E+06              0.    -9.25045E+06
            1212     23.1699E+06     7.78100E+06              0.    -8.28004E+06
            1213     23.4902E+06     7.26241E+06              0.    -7.36473E+06
            1214     23.7705E+06     6.80077E+06              0.    -6.50081E+06
            1215     24.0137E+06     6.40067E+06              0.    -5.68402E+06
            1216     24.2216E+06     6.06671E+06              0.    -4.90987E+06
            1217     24.3953E+06     5.80366E+06              0.    -4.17389E+06
            1218     24.5347E+06     5.61650E+06              0.    -3.47207E+06
            1219     24.6389E+06     5.51056E+06              0.    -2.80116E+06
            1220     24.7058E+06     5.49136E+06              0.    -2.15922E+06
            1221     24.7327E+06     5.56439E+06              0.    -1.54611E+06
            1222     24.7167E+06     5.73466E+06              0.    -964.008E+03
            1223     24.6547E+06     6.00582E+06              0.    -417.815E+03
            1224     24.5450E+06     6.37913E+06              0.     84.6689E+03
            1225     24.3873E+06     6.85211E+06              0.     533.050E+03
            1226     24.1842E+06     7.41744E+06              0.     915.209E+03
            1227     23.9411E+06     8.06239E+06              0.     1.21870E+06
            1228     23.6661E+06     8.76946E+06              0.     1.43238E+06
            1229     23.3688E+06     9.51850E+06              0.     1.54759E+06
            1230     23.4697E+06     10.4714E+06              0.     1.59257E+06
            1231    -3.70711E+06    -847.669E+03              0.    -20.2054E+06
            1232    -657.690E+03     5.92317E+06              0.    -21.0835E+06
            1233     2.02147E+06     10.2625E+06              0.    -24.0301E+06
            1234     4.79088E+06     13.1290E+06              0.    -26.1848E+06
            1235     7.51020E+06     14.8600E+06              0.    -27.5418E+06
            1236     10.0667E+06     15.7641E+06              0.    -28.1655E+06
            1237     12.3849E+06     16.0938E+06              0.    -28.1641E+06
            1238     14.4271E+06     16.0379E+06              0.    -27.6630E+06
            1239     16.1866E+06     15.7290E+06              0.    -26.7852E+06
            1240     17.6785E+06     15.2561E+06              0.    -25.6393E+06
            1241     18.9301E+06     14.6778E+06              0.    -24.3150E+06
            1242     19.9735E+06     14.0327E+06              0.    -22.8830E+06
            1243      20.841E+06     13.3468E+06              0.    -21.3973E+06
            1244     21.5622E+06     12.6383E+06              0.    -19.8979E+06
            1245     22.1630E+06     11.9209E+06              0.     -18.414E+06
            1246     22.6649E+06     11.2052E+06              0.    -16.9663E+06
            1247     23.0859E+06     10.4999E+06              0.    -15.5689E+06
            1248     23.4407E+06     9.81238E+06              0.    -14.2310E+06
            1249     23.7410E+06     9.14924E+06              0.    -12.9582E+06
            1250     23.9965E+06     8.51618E+06              0.    -11.7528E+06
            1251     24.2149E+06     7.91837E+06              0.    -10.6152E+06
            1252     24.4022E+06     7.36051E+06              0.    -9.54378E+06
            1253     24.5636E+06     6.84695E+06              0.    -8.53569E+06
            1254     24.7028E+06     6.38185E+06              0.    -7.58701E+06
            1255     24.8226E+06     5.96929E+06              0.    -6.69305E+06
            1256     24.9251E+06     5.61346E+06              0.    -5.84858E+06
            1257     25.0111E+06     5.31879E+06              0.    -5.04808E+06
            1258     25.0807E+06     5.09021E+06              0.    -4.28607E+06
            1259     25.1325E+06     4.93321E+06              0.    -3.55736E+06
            1260     25.1644E+06     4.85405E+06              0.    -2.85756E+06
            1261     25.1727E+06     4.85975E+06              0.    -2.18357E+06
            1262     25.1525E+06     4.95794E+06              0.    -1.53425E+06
            1263     25.0982E+06     5.15643E+06              0.    -911.211E+03
            1264     25.0040E+06     5.46230E+06              0.    -319.517E+03
            1265     24.8646E+06     5.88046E+06              0.     231.826E+03
            1266     24.6769E+06     6.41172E+06              0.     729.952E+03
            1267     24.4412E+06     7.05065E+06              0.     1.15915E+06
            1268     24.1616E+06     7.78420E+06              0.     1.50290E+06
            1269     23.8461E+06       8.592E+06              0.     1.74661E+06
            1270     23.5055E+06     9.44924E+06              0.     1.87999E+06
            1271     23.6207E+06     10.5398E+06              0.     1.93041E+06
            1272     4.38430E+06     2.91215E+06              0.    -22.5550E+06
            1273     7.36659E+06     9.08650E+06              0.    -23.4566E+06
            1274     10.1951E+06     12.6582E+06              0.    -26.6613E+06
            1275     13.0276E+06     14.6877E+06              0.    -28.8722E+06
            1276     15.6939E+06     15.6217E+06              0.    -30.1146E+06
            1277     18.0706E+06     15.8401E+06              0.    -30.5060E+06
            1278     20.0904E+06     15.6247E+06              0.    -30.2105E+06
            1279     21.7379E+06     15.1634E+06              0.    -29.3996E+06
            1280     23.0351E+06     14.5706E+06              0.    -28.2268E+06
            1281     24.0252E+06     13.9119E+06              0.    -26.8175E+06
            1282     24.7597E+06     13.2233E+06              0.    -25.2675E+06
            1283     25.2888E+06     12.5242E+06              0.    -23.6474E+06
            1284     25.6574E+06     11.8254E+06              0.    -22.0078E+06
            1285     25.9032E+06     11.1335E+06              0.    -20.3839E+06
            1286     26.0567E+06     10.4535E+06              0.    -18.8000E+06
            1287     26.1419E+06     9.78925E+06              0.    -17.2725E+06
            1288     26.1775E+06     9.14467E+06              0.    -15.8115E+06
            1289     26.1779E+06     8.52340E+06              0.    -14.4233E+06
            1290     26.1542E+06     7.92907E+06              0.    -13.1106E+06
            1291     26.1147E+06     7.36521E+06              0.    -11.8738E+06
            1292     26.0659E+06     6.83523E+06              0.    -10.7116E+06
            1293     26.0124E+06     6.34246E+06              0.    -9.62096E+06
            1294     25.9580E+06     5.89019E+06              0.    -8.59791E+06
            1295     25.9052E+06     5.48174E+06              0.    -7.63752E+06
            1296     25.8556E+06     5.12054E+06              0.    -6.73416E+06
            1297     25.8101E+06     4.81035E+06              0.    -5.88168E+06
            1298     25.7686E+06     4.55541E+06              0.    -5.07360E+06
            1299       25.73E+06     4.36064E+06              0.    -4.30333E+06
            1300     25.6922E+06     4.23193E+06              0.    -3.56448E+06
            1301     25.6516E+06     4.17635E+06              0.    -2.85122E+06
            1302     25.6032E+06     4.20235E+06              0.    -2.15892E+06
            1303     25.5399E+06     4.31982E+06              0.    -1.48492E+06
            1304     25.4534E+06     4.53981E+06              0.    -829.524E+03
            1305     25.3342E+06     4.87368E+06              0.    -197.262E+03
            1306     25.1728E+06     5.33149E+06              0.     402.078E+03
            1307     24.9620E+06     5.91915E+06              0.     952.968E+03
            1308     24.6983E+06     6.63490E+06              0.     1.43501E+06
            1309     24.3842E+06     7.46602E+06              0.     1.82569E+06
            1310     24.0278E+06     8.38792E+06              0.     2.10484E+06
            1311     23.6415E+06     9.36776E+06              0.     2.25929E+06
            1312     23.7723E+06     10.6091E+06              0.     2.31599E+06
            1313     13.8984E+06     7.26373E+06              0.    -25.0695E+06
            1314     16.7768E+06     12.6327E+06              0.    -25.9506E+06
            1315     19.7658E+06     15.1931E+06              0.    -29.3656E+06
            1316     22.6291E+06     16.1639E+06              0.    -31.5214E+06
            1317     25.1605E+06     16.1463E+06              0.    -32.5061E+06
            1318     27.2321E+06     15.6012E+06              0.    -32.5245E+06
            1319     28.8008E+06     14.8250E+06              0.    -31.8210E+06
            1320     29.8919E+06     13.9808E+06              0.    -30.6229E+06
            1321     30.5713E+06     13.1448E+06              0.    -29.1134E+06
            1322     30.9205E+06     12.3458E+06              0.    -27.4276E+06
            1323     31.0187E+06     11.5899E+06              0.    -25.6593E+06
            1324     30.9347E+06     10.8743E+06              0.    -23.8720E+06
            1325     30.7242E+06     10.1939E+06              0.    -22.1071E+06
            1326     30.4300E+06     9.54411E+06              0.    -20.3916E+06
            1327     30.0846E+06     8.92169E+06              0.    -18.7424E+06
            1328     29.7117E+06     8.32504E+06              0.    -17.1698E+06
            1329     29.3288E+06     7.75384E+06              0.    -15.6793E+06
            1330     28.9483E+06     7.20872E+06              0.    -14.2733E+06
            1331     28.5790E+06     6.69102E+06              0.    -12.9518E+06
            1332     28.2271E+06     6.20248E+06              0.    -11.7130E+06
            1333     27.8969E+06     5.74513E+06              0.    -10.5539E+06
            1334     27.5910E+06     5.32121E+06              0.    -9.47014E+06
            1335     27.3112E+06     4.93308E+06              0.    -8.45677E+06
            1336     27.0585E+06     4.58332E+06              0.    -7.50796E+06
            1337     26.8330E+06     4.27477E+06              0.    -6.61731E+06
            1338     26.6343E+06     4.01073E+06              0.    -5.77789E+06
            1339     26.4613E+06     3.79509E+06              0.    -4.98238E+06
            1340     26.3122E+06     3.63268E+06              0.    -4.22318E+06
            1341     26.1839E+06     3.52949E+06              0.    -3.49265E+06
            1342     26.0720E+06     3.49317E+06              0.    -2.78343E+06
            1343     25.9702E+06     3.53332E+06              0.    -2.08895E+06
            1344     25.8699E+06     3.66191E+06              0.    -1.40432E+06
            1345     25.7601E+06     3.89337E+06              0.    -727.612E+03
            1346     25.6272E+06     4.24415E+06              0.    -61.5438E+03
            1347     25.4565E+06     4.73114E+06              0.      584.44E+03
            1348     25.2345E+06     5.36822E+06              0.     1.19254E+06
            1349     24.9524E+06     6.16060E+06              0.     1.73659E+06
            1350     24.6091E+06     7.09808E+06              0.     2.18529E+06
            1351     24.2131E+06     8.15077E+06              0.     2.50916E+06
            1352     23.7795E+06     9.27247E+06              0.     2.68936E+06
            1353     23.9278E+06     10.6809E+06              0.     2.75395E+06
            1354     25.1509E+06     12.3156E+06              0.    -27.8174E+06
            1355     27.8661E+06     16.5677E+06              0.    -28.6059E+06
            1356     31.0147E+06     17.7676E+06              0.    -32.1398E+06
            1357     33.8370E+06     17.3950E+06              0.    -34.0611E+06
            1358     36.0889E+06     16.2666E+06              0.    -34.5801E+06
            1359     37.6560E+06     14.9162E+06              0.    -34.0443E+06
            1360     38.5493E+06     13.6128E+06              0.    -32.8076E+06
            1361     38.8637E+06     12.4529E+06              0.    -31.1560E+06
            1362     38.7294E+06     11.4474E+06              0.    -29.2908E+06
            1363     38.2742E+06     10.5749E+06              0.    -27.3415E+06
            1364     37.6059E+06     9.80729E+06              0.    -25.3873E+06
            1365     36.8075E+06     9.11938E+06              0.    -23.4749E+06
            1366     35.9399E+06     8.49147E+06              0.    -21.6311E+06
            1367     35.0464E+06     7.90951E+06              0.    -19.8708E+06
            1368     34.1568E+06     7.36412E+06              0.    -18.2018E+06
            1369     33.2915E+06     6.84948E+06              0.    -16.6273E+06
            1370     32.4639E+06     6.36233E+06              0.    -15.1478E+06
            1371     31.6824E+06     5.90121E+06              0.    -13.7618E+06
            1372     30.9522E+06     5.46585E+06              0.    -12.4665E+06
            1373     30.2760E+06     5.05678E+06              0.    -11.2581E+06
            1374     29.6552E+06     4.67503E+06              0.    -10.1321E+06
            1375     29.0897E+06     4.32200E+06              0.    -9.08328E+06
            1376     28.5789E+06     3.99934E+06              0.    -8.10567E+06
            1377     28.1216E+06     3.70900E+06              0.    -7.19291E+06
            1378     27.7166E+06     3.45327E+06              0.    -6.33806E+06
            1379     27.3618E+06     3.23493E+06              0.    -5.53368E+06
            1380     27.0553E+06     3.05747E+06              0.    -4.77185E+06
            1381     26.7944E+06     2.92533E+06              0.    -4.04419E+06
            1382     26.5755E+06     2.84437E+06              0.    -3.34196E+06
            1383     26.3939E+06     2.82232E+06              0.    -2.65624E+06
            1384     26.2430E+06     2.86943E+06              0.    -1.97831E+06
            1385     26.1132E+06     2.99919E+06              0.    -1.30044E+06
            1386     25.9914E+06     3.22902E+06              0.    -617.171E+03
            1387     25.8604E+06     3.58063E+06              0.     72.4168E+03
            1388     25.6991E+06     4.07933E+06              0.     761.537E+03
            1389     25.4854E+06     4.75068E+06              0.     1.43190E+06
            1390     25.2016E+06     5.61279E+06              0.     2.05134E+06
            1391     24.8404E+06     6.66366E+06              0.     2.57602E+06
            1392     24.4093E+06     7.86888E+06              0.     2.96064E+06
            1393     23.9282E+06     9.16088E+06              0.     3.17476E+06
            1394     24.0967E+06     10.7596E+06              0.     3.25045E+06
            1395     38.6113E+06     18.2277E+06              0.    -30.9092E+06
            1396     41.0560E+06     20.8699E+06              0.    -31.4776E+06
            1397     44.3279E+06     20.1917E+06              0.    -34.9538E+06
            1398     46.9599E+06     18.1218E+06              0.    -36.3460E+06
            1399     48.6783E+06     15.7584E+06              0.    -36.1013E+06
            1400     49.4240E+06     13.6455E+06              0.    -34.7947E+06
            1401     49.3158E+06     11.9295E+06              0.    -32.9111E+06
            1402     48.5634E+06     10.5781E+06              0.    -30.7777E+06
            1403     47.3804E+06     9.50929E+06              0.    -28.5825E+06
            1404     45.9425E+06     8.64654E+06              0.    -26.4242E+06
            1405     44.3768E+06     7.92952E+06              0.    -24.3500E+06
            1406     42.7697E+06     7.31458E+06              0.    -22.3808E+06
            1407     41.1778E+06     6.77153E+06              0.    -20.5240E+06
            1408     39.6370E+06     6.28024E+06              0.    -18.7804E+06
            1409     38.1694E+06     5.82771E+06              0.    -17.1479E+06
            1410     36.7878E+06     5.40586E+06              0.    -15.6227E+06
            1411     35.4987E+06     5.00994E+06              0.    -14.2005E+06
            1412     34.3046E+06     4.63741E+06              0.    -12.8765E+06
            1413     33.2057E+06     4.28716E+06              0.    -11.6456E+06
            1414     32.2002E+06     3.95903E+06              0.    -10.5025E+06
            1415     31.2854E+06     3.65345E+06              0.    -9.44151E+06
            1416     30.4583E+06     3.37124E+06              0.    -8.45671E+06
            1417     29.7152E+06     3.11355E+06              0.    -7.54181E+06
            1418     29.0528E+06     2.88182E+06              0.    -6.69013E+06
            1419     28.4676E+06     2.67782E+06              0.    -5.89456E+06
            1420     27.9563E+06     2.50380E+06              0.    -5.14751E+06
            1421     27.5158E+06     2.36269E+06              0.    -4.44083E+06
            1422     27.1428E+06     2.25840E+06              0.    -3.76572E+06
            1423     26.8336E+06     2.19623E+06              0.    -3.11270E+06
            1424     26.5837E+06     2.18349E+06              0.    -2.47156E+06
            1425     26.3872E+06     2.23026E+06              0.    -1.83152E+06
            1426     26.2349E+06     2.35057E+06              0.    -1.18163E+06
            1427     26.1136E+06     2.56366E+06              0.    -511.834E+03
            1428     26.0036E+06     2.89555E+06              0.     184.806E+03
            1429     25.8776E+06     3.38009E+06              0.     907.944E+03
            1430     25.7023E+06     4.05822E+06              0.     1.64341E+06
            1431     25.4453E+06     4.96981E+06              0.     2.35544E+06
            1432     25.0875E+06     6.13433E+06              0.     2.98441E+06
            1433     24.6323E+06     7.52016E+06              0.     3.45792E+06
            1434     24.1059E+06     9.02782E+06              0.     3.72146E+06
            1435     24.3006E+06     10.8552E+06              0.     3.81473E+06
            1436     55.0102E+06     25.2453E+06              0.    -34.5258E+06
            1437     56.9767E+06     25.4459E+06              0.    -34.6323E+06
            1438     60.2431E+06     22.0938E+06              0.    -37.7060E+06
            1439     62.3799E+06     17.9372E+06              0.    -38.0768E+06
            1440     63.1197E+06     14.3581E+06              0.    -36.6655E+06
            1441     62.5399E+06     11.6875E+06              0.    -34.3710E+06
            1442     60.9729E+06     9.78501E+06              0.    -31.7952E+06
            1443     58.7925E+06     8.41723E+06              0.    -29.2341E+06
            1444     56.3062E+06     7.41176E+06              0.    -26.8073E+06
            1445     53.7141E+06     6.64596E+06              0.    -24.5492E+06
            1446     51.1384E+06     6.03817E+06              0.    -22.4605E+06
            1447     48.6496E+06     5.53493E+06              0.    -20.5305E+06
            1448     46.2867E+06     5.10181E+06              0.    -18.7456E+06
            1449     44.0694E+06     4.71695E+06              0.    -17.0933E+06
            1450     42.0061E+06     4.36672E+06              0.    -15.5626E+06
            1451     40.0981E+06     4.04281E+06              0.    -14.1444E+06
            1452     38.3427E+06     3.74036E+06              0.    -12.8304E+06
            1453     36.7349E+06     3.45669E+06              0.    -11.6137E+06
            1454     35.2683E+06     3.19056E+06              0.    -10.4877E+06
            1455     33.9360E+06     2.94155E+06              0.    -9.44609E+06
            1456     32.7308E+06     2.70983E+06              0.    -8.48283E+06
            1457     31.6457E+06     2.49591E+06              0.    -7.59177E+06
            1458     30.6742E+06     2.30058E+06              0.    -6.76666E+06
            1459       29.81E+06     2.12486E+06              0.    -6.00097E+06
            1460     29.0476E+06     1.97008E+06              0.    -5.28785E+06
            1461     28.3820E+06     1.83796E+06              0.    -4.61998E+06
            1462     27.8087E+06     1.73079E+06              0.    -3.98944E+06
            1463     27.3241E+06     1.65173E+06              0.    -3.38756E+06
            1464     26.9245E+06     1.60521E+06              0.    -2.80468E+06
            1465     26.6063E+06     1.59755E+06              0.    -2.22996E+06
            1466     26.3651E+06     1.63782E+06              0.    -1.65109E+06
            1467     26.1945E+06     1.73918E+06              0.    -1.05424E+06
            1468     26.0837E+06     1.92077E+06              0.    -424.376E+03
            1469     26.0143E+06     2.21039E+06              0.     253.375E+03
            1470     25.9562E+06     2.64799E+06              0.     989.949E+03
            1471     25.8633E+06     3.28875E+06              0.     1.78366E+06
            1472     25.6817E+06     4.20545E+06              0.     2.60530E+06
            1473     25.3666E+06     5.46252E+06              0.     3.37985E+06
            1474     24.9112E+06     7.06047E+06              0.     3.99332E+06
            1475     24.3493E+06     8.86116E+06              0.     4.33721E+06
            1476     24.5824E+06     10.9871E+06              0.     4.46253E+06
            1477     75.5803E+06     33.7793E+06              0.    -38.9871E+06
            1478     76.5894E+06     29.9731E+06              0.    -38.1420E+06
            1479     79.5054E+06     22.7299E+06              0.    -40.0803E+06
            1480     80.5446E+06     16.2660E+06              0.    -38.6437E+06
            1481     79.5008E+06     11.8541E+06              0.    -35.5830E+06
            1482     76.8247E+06     9.10102E+06              0.    -32.2179E+06
            1483     73.1840E+06     7.31001E+06              0.    -29.0723E+06
            1484     69.1929E+06     6.11935E+06              0.    -26.2767E+06
            1485     65.1777E+06     5.29508E+06              0.    -23.8106E+06
            1486     61.3049E+06     4.69730E+06              0.    -21.6228E+06
            1487     57.6506E+06     4.24044E+06              0.    -19.6632E+06
            1488     54.2453E+06     3.87238E+06              0.    -17.8918E+06
            1489     51.0960E+06     3.56133E+06              0.    -16.2786E+06
            1490     48.1983E+06     3.28796E+06              0.    -14.8015E+06
            1491     45.5419E+06     3.04064E+06              0.    -13.4443E+06
            1492     43.1143E+06     2.81252E+06              0.    -12.1944E+06
            1493     40.9018E+06     2.59969E+06              0.    -11.0421E+06
            1494     38.8905E+06     2.40006E+06              0.    -9.97944E+06
            1495     37.0672E+06     2.21267E+06              0.    -8.99951E+06
            1496     35.4191E+06     2.03722E+06              0.    -8.09607E+06
            1497     33.9342E+06     1.87382E+06              0.    -7.26323E+06
            1498     32.6014E+06     1.72286E+06              0.    -6.49526E+06
            1499     31.4106E+06     1.58487E+06              0.    -5.78639E+06
            1500     30.3527E+06     1.46058E+06              0.    -5.13074E+06
            1501     29.4197E+06     1.35091E+06              0.    -4.52212E+06
            1502     28.6048E+06     1.25708E+06              0.    -3.95399E+06
            1503     27.9020E+06     1.18074E+06              0.    -3.41919E+06
            1504     27.3070E+06     1.12419E+06              0.    -2.90978E+06
            1505     26.8162E+06     1.09078E+06              0.    -2.41673E+06
            1506     26.4272E+06     1.08539E+06              0.    -1.92947E+06
            1507     26.1381E+06     1.11528E+06              0.    -1.43538E+06
            1508     25.9466E+06     1.19144E+06              0.    -919.044E+03
            1509     25.8481E+06     1.33062E+06              0.    -361.591E+03
            1510     25.8320E+06     1.55866E+06              0.     259.719E+03
            1511     25.8738E+06     1.91573E+06              0.     970.107E+03
            1512     25.9249E+06     2.46495E+06              0.     1.79143E+06
            1513     25.8961E+06     3.30051E+06              0.     2.72145E+06
            1514     25.7012E+06     4.57738E+06              0.     3.69559E+06
            1515     25.2954E+06     6.39693E+06              0.     4.53656E+06
            1516     24.7254E+06     8.62327E+06              0.     5.03349E+06
            1517     25.0338E+06     11.1965E+06              0.     5.22341E+06
            1518     102.535E+06     44.5553E+06              0.    -44.9279E+06
            1519     101.500E+06     33.5217E+06              0.    -41.8772E+06
            1520     103.143E+06     20.6273E+06              0.    -41.2520E+06
            1521     101.812E+06     12.4912E+06              0.    -36.7095E+06
            1522     97.6476E+06     8.53628E+06              0.    -31.8303E+06
            1523     91.6187E+06     6.19029E+06              0.    -27.6985E+06
            1524     85.2959E+06     4.79564E+06              0.    -24.4037E+06
            1525     79.2112E+06     3.92311E+06              0.    -21.7335E+06
            1526     73.5562E+06     3.35155E+06              0.    -19.5123E+06
            1527     68.3704E+06     2.95469E+06              0.    -17.6126E+06
            1528     63.6408E+06     2.66100E+06              0.    -15.9503E+06
            1529     59.3371E+06     2.42918E+06              0.    -14.4698E+06
            1530     55.4255E+06     2.23525E+06              0.    -13.1346E+06
            1531     51.8730E+06     2.06526E+06              0.    -11.9200E+06
            1532     48.6493E+06     1.91118E+06              0.    -10.8090E+06
            1533     45.7269E+06     1.76848E+06              0.    -9.78939E+06
            1534     43.0810E+06     1.63474E+06              0.    -8.85213E+06
            1535     40.6889E+06     1.50874E+06              0.    -7.98995E+06
            1536     38.5301E+06     1.39003E+06              0.    -7.19681E+06
            1537     36.5860E+06     1.27854E+06              0.    -6.46735E+06
            1538     34.8398E+06     1.17445E+06              0.    -5.79662E+06
            1539     33.2761E+06     1.07806E+06              0.    -5.17985E+06
            1540     31.8811E+06     989.793E+03              0.    -4.61227E+06
            1541     30.6427E+06     910.114E+03              0.    -4.08905E+06
            1542     29.5501E+06     839.623E+03              0.    -3.60514E+06
            1543     28.5941E+06     779.091E+03              0.    -3.15516E+06
            1544     27.7675E+06      729.57E+03              0.    -2.73328E+06
            1545     27.0644E+06     692.554E+03              0.    -2.33292E+06
            1546     26.4811E+06     670.239E+03              0.    -1.94648E+06
            1547     26.0161E+06     665.921E+03              0.    -1.56488E+06
            1548     25.6699E+06     684.655E+03              0.    -1.17673E+06
            1549     25.4451E+06     734.329E+03              0.    -767.372E+03
            1550     25.3459E+06     827.500E+03              0.    -317.151E+03
            1551     25.3755E+06     984.544E+03              0.     200.786E+03
            1552     25.5300E+06     1.23932E+06              0.     823.380E+03
            1553     25.7814E+06     1.64858E+06              0.     1.59842E+06
            1554     26.0477E+06     2.31372E+06              0.     2.57980E+06
            1555     26.1045E+06     3.39208E+06              0.     3.76826E+06
            1556     25.8645E+06     5.33487E+06              0.     5.00352E+06
            1557     25.3720E+06     8.20600E+06              0.     5.80053E+06
            1558     25.8381E+06     11.5663E+06              0.     6.16094E+06
            1559     141.356E+06     59.4274E+06              0.    -53.7153E+06
            1560     133.820E+06     32.0774E+06              0.    -45.4582E+06
            1561     132.245E+06     13.0783E+06              0.    -38.0285E+06
            1562     126.720E+06     8.21240E+06              0.    -30.1105E+06
            1563     115.902E+06     5.14564E+06              0.    -24.2551E+06
            1564     105.550E+06     3.54629E+06              0.    -20.4049E+06
            1565     96.2903E+06     2.64590E+06              0.    -17.6670E+06
            1566     88.1397E+06     2.12151E+06              0.    -15.6035E+06
            1567     80.9408E+06     1.79706E+06              0.    -13.9524E+06
            1568     74.5446E+06     1.58201E+06              0.    -12.5701E+06
            1569     68.8310E+06     1.42780E+06              0.    -11.3731E+06
            1570     63.7066E+06     1.30798E+06              0.    -10.3119E+06
            1571     59.0981E+06     1.20795E+06              0.    -9.35623E+06
            1572     54.9466E+06     1.11967E+06              0.    -8.48697E+06
            1573     51.2039E+06     1.03875E+06              0.    -7.69152E+06
            1574     47.8295E+06     962.915E+03              0.    -6.96121E+06
            1575     44.7883E+06     891.057E+03              0.    -6.28973E+06
            1576     42.0499E+06     822.748E+03              0.    -5.67216E+06
            1577     39.5871E+06     757.921E+03              0.    -5.10439E+06
            1578     37.3759E+06     696.699E+03              0.    -4.58277E+06
            1579     35.3946E+06     639.296E+03              0.    -4.10389E+06
            1580     33.6237E+06     585.967E+03              0.    -3.66442E+06
            1581     32.0457E+06     536.985E+03              0.    -3.26103E+06
            1582     30.6452E+06     492.648E+03              0.    -2.89031E+06
            1583     29.4085E+06     453.298E+03              0.    -2.54870E+06
            1584     28.3240E+06     419.358E+03              0.    -2.23239E+06
            1585     27.3821E+06     391.403E+03              0.    -1.93725E+06
            1586     26.5754E+06     370.248E+03              0.    -1.65862E+06
            1587     25.8989E+06     357.112E+03              0.    -1.39108E+06
            1588     25.3510E+06     353.864E+03              0.    -1.12803E+06
            1589     24.9332E+06     363.445E+03              0.    -861.029E+03
            1590     24.6518E+06     390.592E+03              0.    -578.748E+03
            1591     24.5187E+06     443.138E+03              0.    -265.140E+03
            1592     24.5530E+06     534.422E+03              0.     103.715E+03
            1593     24.7804E+06     687.850E+03              0.     564.947E+03
            1594     25.2285E+06     946.092E+03              0.     1.17924E+06
            1595     25.8933E+06     1.38563E+06              0.     2.04053E+06
            1596     26.6539E+06     2.16685E+06              0.     3.30743E+06
            1597     26.6991E+06     3.43860E+06              0.     4.98413E+06
            1598     26.4372E+06     7.07599E+06              0.     6.64477E+06
            1599     27.5794E+06     12.3579E+06              0.     7.42536E+06
            1600     202.434E+06     81.9342E+06              0.    -69.3255E+06
            1601     176.960E+06     10.7617E+06              0.    -37.5223E+06
            1602     173.802E+06     10.2364E+06              0.    -25.2809E+06
            1603     149.122E+06     4.91219E+06              0.    -16.5417E+06
            1604     130.823E+06     2.79966E+06              0.    -12.7604E+06
            1605     116.577E+06     1.77367E+06              0.    -10.5462E+06
            1606     105.014E+06     1.26443E+06              0.    -9.13729E+06
            1607     95.2741E+06     988.686E+03              0.    -8.11695E+06
            1608     86.8688E+06     827.957E+03              0.    -7.31223E+06
            1609     79.5005E+06     726.005E+03              0.    -6.63515E+06
            1610     72.9755E+06     655.081E+03              0.    -6.04088E+06
            1611     67.1596E+06     600.871E+03              0.    -5.50530E+06
            1612     61.9547E+06     555.824E+03              0.    -5.01514E+06
            1613     57.2854E+06     515.940E+03              0.    -4.56283E+06
            1614     53.0915E+06     479.135E+03              0.    -4.14391E+06
            1615     49.3231E+06     444.382E+03              0.    -3.75556E+06
            1616     45.9377E+06     411.231E+03              0.    -3.39580E+06
            1617     42.8985E+06     379.542E+03              0.    -3.06307E+06
            1618     40.1728E+06     349.342E+03              0.    -2.75595E+06
            1619     37.7318E+06     320.729E+03              0.    -2.47306E+06
            1620     35.5492E+06     293.834E+03              0.    -2.21298E+06
            1621     33.6018E+06     268.795E+03              0.    -1.97421E+06
            1622     31.8683E+06     245.750E+03              0.    -1.75514E+06
            1623     30.3300E+06     224.841E+03              0.    -1.55408E+06
            1624     28.9701E+06     206.222E+03              0.    -1.36921E+06
            1625     27.7741E+06     190.080E+03              0.    -1.19854E+06
            1626     26.7298E+06     176.666E+03              0.    -1.03993E+06
            1627     25.8272E+06     166.345E+03              0.    -890.923E+03
            1628     25.0593E+06     159.667E+03              0.    -748.693E+03
            1629     24.4223E+06     157.499E+03              0.    -609.775E+03
            1630     23.9165E+06     161.240E+03              0.    -469.717E+03
            1631     23.5481E+06     173.224E+03              0.    -322.438E+03
            1632     23.3310E+06     197.474E+03              0.    -159.080E+03
            1633     23.2920E+06     241.250E+03              0.     34.1310E+03
            1634     23.4779E+06     318.394E+03              0.     280.384E+03
            1635     23.9700E+06     456.757E+03              0.     620.803E+03
            1636     24.9086E+06     717.736E+03              0.     1.14087E+06
            1637     26.4960E+06     1.22301E+06              0.     1.99422E+06
            1638     28.9007E+06     2.31521E+06              0.     3.69155E+06
            1639     28.2893E+06     2.92554E+06              0.     6.01884E+06
            1640     31.2202E+06     14.0146E+06              0.     9.50101E+06
            1641     375.371E+06     140.978E+06              0.    -104.507E+06
            1642     269.266E+06     18.0222E+06              0.    -35.0499E+06
            1643     194.103E+06     10.9465E+06              0.    -9.64570E+06
            1644     158.978E+06     3.81124E+06              0.    -6.58985E+06
            1645     138.955E+06     2.92399E+06              0.    -4.75697E+06
            1646     123.591E+06     2.22240E+06              0.    -4.05117E+06
            1647     111.140E+06     1.85361E+06              0.    -3.62814E+06
            1648     100.560E+06     1.56883E+06              0.    -3.34184E+06
            1649     91.3754E+06     1.34027E+06              0.    -3.10786E+06
            1650     83.2910E+06     1.14466E+06              0.    -2.89642E+06
            1651     76.1165E+06     973.390E+03              0.    -2.69470E+06
            1652     69.7173E+06     821.440E+03              0.    -2.49842E+06
            1653     63.9926E+06     685.920E+03              0.    -2.30681E+06
            1654     58.8634E+06     564.877E+03              0.    -2.12063E+06
            1655     54.2647E+06     456.848E+03              0.    -1.94106E+06
            1656     50.1419E+06     360.622E+03              0.    -1.76929E+06
            1657     46.4476E+06     275.122E+03              0.    -1.60630E+06
            1658     43.1401E+06     199.345E+03              0.    -1.45275E+06
            1659     40.1821E+06     132.336E+03              0.    -1.30904E+06
            1660     37.5401E+06     73.1711E+03              0.    -1.17528E+06
            1661     35.1837E+06     20.9550E+03              0.    -1.05132E+06
            1662     33.0852E+06    -25.1795E+03              0.    -936.844E+03
            1663     31.2198E+06    -66.0729E+03              0.    -831.365E+03
            1664     29.5649E+06    -102.539E+03              0.    -734.255E+03
            1665     28.1001E+06    -135.365E+03              0.    -644.773E+03
            1666     26.8075E+06    -165.317E+03              0.    -562.069E+03
            1667     25.6712E+06    -193.144E+03              0.    -485.184E+03
            1668     24.6779E+06    -219.580E+03              0.    -413.017E+03
            1669     23.8167E+06    -245.354E+03              0.    -344.289E+03
            1670     23.0795E+06    -271.189E+03              0.    -277.438E+03
            1671     22.4621E+06    -297.788E+03              0.    -210.472E+03
            1672     21.9643E+06    -325.786E+03              0.    -140.673E+03
            1673     21.5930E+06    -355.584E+03              0.    -64.0864E+03
            1674     21.3647E+06    -387.059E+03              0.     25.5601E+03
            1675     21.3143E+06    -417.674E+03              0.     138.767E+03
            1676     21.5082E+06    -442.330E+03              0.     296.893E+03
            1677     22.1076E+06    -418.071E+03              0.     537.551E+03
            1678     23.4176E+06    -322.704E+03              0.     1.00867E+06
            1679     27.0929E+06     846.541E+03              0.     1.81895E+06
            1680     35.7665E+06     2.44537E+06              0.     5.91946E+06
            1681     50.1378E+06     22.4272E+06              0.     14.3412E+06


  Minimum           -36.4605E+06    -16.6352E+06              0.    -104.507E+06
         At Node             821             821            1681            1641

  Maximum            375.371E+06     140.978E+06              0.     104.507E+06
         At Node            1641            1641            1681               1

           Total     43.6910E+09     14.1224E+09              0.        -20.4995


